




                       MSC.Patran 21.1.348049 Fri Jul 03 23:12:17 PDT 2015 - Analysis Code: MSC.Nastran 

                                             Load Case: Combined_Loads, Subcase 1 

                                             Result Stress Tensor,  - Layer At Z1 

                                                     Entity: Element Tensor


-Entity ID--El. Pos. ID---X Location----Y Location----Z Location----von Mises---
       1           0      3088.698486    186.834412  -69807.68750     25.982719
       2           0      3043.657715    557.776428  -69807.68750     21.851259
       3           0      2954.233887    920.581055  -69807.68750     36.234283
       4           0      2821.731445   1269.959839  -69807.68750     43.614365
       5           0      2648.082520   1600.820190  -69807.68750     42.551956
       6           0      2435.817871   1908.338867  -69807.68750     35.612461
       7           0      2188.030762   2188.032471  -69807.68750     25.335451
       8           0      1908.336304   2435.819824  -69807.68750     14.030985
       9           0      1600.816406   2648.084961  -69807.68750      4.410245
      10           0      1269.955322   2821.733398  -69807.68750      6.630410
      11           0       920.576538   2954.235107  -69807.68750     12.330413
      12           0       557.773071   3043.658203  -69807.68750     15.963138
      13           0       186.833054   3088.698730  -69807.68750     17.698015
      14           0      3088.698486    186.834412  -69423.07812     15.564799
      15           0      3043.657715    557.776428  -69423.07812     20.040962
      16           0      2954.233887    920.581055  -69423.07812     37.390255
      17           0      2821.731445   1269.959839  -69423.07812     44.165455
      18           0      2648.082520   1600.820190  -69423.07812     42.230259
      19           0      2435.817871   1908.338867  -69423.07812     34.539902
      20           0      2188.030762   2188.032471  -69423.07812     23.761219
      21           0      1908.336304   2435.819824  -69423.07812     12.477067
      22           0      1600.816406   2648.084961  -69423.07812      4.678133
      23           0      1269.955322   2821.733398  -69423.07812      8.541128
      24           0       920.576538   2954.235107  -69423.07812     13.637877
      25           0       557.773071   3043.658203  -69423.07812     16.787500
      26           0       186.833054   3088.698730  -69423.07812     18.260227
      27           0      3088.698486    186.834412  -69038.46093     12.958798
      28           0      3043.657715    557.776428  -69038.46093     24.101316
      29           0      2954.233887    920.581055  -69038.46093     38.929096
      30           0      2821.731445   1269.959839  -69038.46093     43.152565
      31           0      2648.082520   1600.820190  -69038.46093     39.667137
      32           0      2435.817871   1908.338867  -69038.46093     31.316601
      33           0      2188.030762   2188.032471  -69038.46093     20.838161
      34           0      1908.336304   2435.819824  -69038.46093     11.226340
      35           0      1600.816406   2648.084961  -69038.46093      7.393362
      36           0      1269.955322   2821.733398  -69038.46093     10.482010
      37           0       920.576538   2954.235107  -69038.46093     13.660244
      38           0       557.773071   3043.658203  -69038.46093     15.398108
      39           0       186.833054   3088.698730  -69038.46093     16.113207
      40           0      3088.698486    186.834412  -68653.84375     28.151785
      41           0      3043.657715    557.776428  -68653.84375     32.799393
      42           0      2954.233887    920.581055  -68653.84375     41.717136
      43           0      2821.731445   1269.959839  -68653.84375     43.143307
      44           0      2648.082520   1600.820190  -68653.84375     38.309105
      45           0      2435.817871   1908.338867  -68653.84375     29.654182
      46           0      2188.030762   2188.032471  -68653.84375     19.850229
      47           0      1908.336304   2435.819824  -68653.84375     12.214086
      48           0      1600.816406   2648.084961  -68653.84375     10.393500
      49           0      1269.955322   2821.733398  -68653.84375     12.504365
      50           0       920.576538   2954.235107  -68653.84375     14.318371
      51           0       557.773071   3043.658203  -68653.84375     15.020576
      52           0       186.833054   3088.698730  -68653.84375     15.170322
      53           0      3088.698486    186.834412  -68269.23437     46.685608
      54           0      3043.657715    557.776428  -68269.23437     43.642647
      55           0      2954.233887    920.581055  -68269.23437     44.755871
      56           0      2821.731445   1269.959839  -68269.23437     42.737156
      57           0      2648.082520   1600.820190  -68269.23437     36.842400
      58           0      2435.817871   1908.338867  -68269.23437     28.565195
      59           0      2188.030762   2188.032471  -68269.23437     20.394323
      60           0      1908.336304   2435.819824  -68269.23437     15.058417
      61           0      1600.816406   2648.084961  -68269.23437     13.783074
      62           0      1269.955322   2821.733398  -68269.23437     14.387442
      63           0       920.576538   2954.235107  -68269.23437     14.635086
      64           0       557.773071   3043.658203  -68269.23437     14.182022
      65           0       186.833054   3088.698730  -68269.23437     13.699645
      66           0      3088.698486    186.834412  -67884.61718     64.056206
      67           0      3043.657715    557.776428  -67884.61718     54.994942
      68           0      2954.233887    920.581055  -67884.61718     48.577320
      69           0      2821.731445   1269.959839  -67884.61718     42.607143
      70           0      2648.082520   1600.820190  -67884.61718     35.678043
      71           0      2435.817871   1908.338867  -67884.61718     28.351257
      72           0      2188.030762   2188.032471  -67884.61718     22.294863
      73           0      1908.336304   2435.819824  -67884.61718     18.700874
      74           0      1600.816406   2648.084961  -67884.61718     17.180920
      75           0      1269.955322   2821.733398  -67884.61718     16.279079
      76           0       920.576538   2954.235107  -67884.61718     15.026702
      77           0       557.773071   3043.658203  -67884.61718     13.459175
      78           0       186.833054   3088.698730  -67884.61718     12.360226
      79           0      3088.698486    186.834412  -67500.00000     81.390602
      80           0      3043.657715    557.776428  -67500.00000     66.547134
      81           0      2954.233887    920.581055  -67500.00000     52.752522
      82           0      2821.731445   1269.959839  -67500.00000     42.466888
      83           0      2648.082520   1600.820190  -67500.00000     34.736366
      84           0      2435.817871   1908.338867  -67500.00000     29.012154
      85           0      2188.030762   2188.032471  -67500.00000     25.305347
      86           0      1908.336304   2435.819824  -67500.00000     22.824303
      87           0      1600.816406   2648.084961  -67500.00000     20.585932
      88           0      1269.955322   2821.733398  -67500.00000     18.105406
      89           0       920.576538   2954.235107  -67500.00000     15.337910
      90           0       557.773071   3043.658203  -67500.00000     12.656820
      91           0       186.833054   3088.698730  -67500.00000     10.935284
      92           0      3088.698486    186.834412  -67115.39062     98.056046
      93           0      3043.657715    557.776428  -67115.39062     78.211823
      94           0      2954.233887    920.581055  -67115.39062     57.438530
      95           0      2821.731445   1269.959839  -67115.39062     42.434219
      96           0      2648.082520   1600.820190  -67115.39062     34.011059
      97           0      2435.817871   1908.338867  -67115.39062     30.501604
      98           0      2188.030762   2188.032471  -67115.39062     29.089682
      99           0      1908.336304   2435.819824  -67115.39062     27.195442
     100           0      1600.816406   2648.084961  -67115.39062     23.998188
     101           0      1269.955322   2821.733398  -67115.39062     19.901550
     102           0       920.576538   2954.235107  -67115.39062     15.611530
     103           0       557.773071   3043.658203  -67115.39062     11.814191
     104           0       186.833054   3088.698730  -67115.39062      9.462298
     105           0      3088.698486    186.834412  -66730.77343    113.852417
     106           0      3043.657715    557.776428  -66730.77343     89.455849
     107           0      2954.233887    920.581055  -66730.77343     62.358009
     108           0      2821.731445   1269.959839  -66730.77343     42.472450
     109           0      2648.082520   1600.820190  -66730.77343     33.492973
     110           0      2435.817871   1908.338867  -66730.77343     32.557545
     111           0      2188.030762   2188.032471  -66730.77343     33.181080
     112           0      1908.336304   2435.819824  -66730.77343     31.538437
     113           0      1600.816406   2648.084961  -66730.77343     27.284615
     114           0      1269.955322   2821.733398  -66730.77343     21.622412
     115           0       920.576538   2954.235107  -66730.77343     15.858805
     116           0       557.773071   3043.658203  -66730.77343     10.989725
     117           0       186.833054   3088.698730  -66730.77343      8.028657
     118           0      3088.698486    186.834412  -66346.15625    130.907364
     119           0      3043.657715    557.776428  -66346.15625    101.789696
     120           0      2954.233887    920.581055  -66346.15625     68.077881
     121           0      2821.731445   1269.959839  -66346.15625     42.677982
     122           0      2648.082520   1600.820190  -66346.15625     33.270050
     123           0      2435.817871   1908.338867  -66346.15625     35.578644
     124           0      2188.030762   2188.032471  -66346.15625     38.133926
     125           0      1908.336304   2435.819824  -66346.15625     36.404903
     126           0      1600.816406   2648.084961  -66346.15625     30.869165
     127           0      1269.955322   2821.733398  -66346.15625     23.450304
     128           0       920.576538   2954.235107  -66346.15625     16.059605
     129           0       557.773071   3043.658203  -66346.15625     10.021767
     130           0       186.833054   3088.698730  -66346.15625      6.381835
     131           0      3088.698486    186.834412  -65961.53906    142.670029
     132           0      3043.657715    557.776428  -65961.53906    110.415512
     133           0      2954.233887    920.581055  -65961.53906     72.379463
     134           0      2821.731445   1269.959839  -65961.53906     42.688499
     135           0      2648.082520   1600.820190  -65961.53906     32.859039
     136           0      2435.817871   1908.338867  -65961.53906     37.883430
     137           0      2188.030762   2188.032471  -65961.53906     41.726906
     138           0      1908.336304   2435.819824  -65961.53906     39.902874
     139           0      1600.816406   2648.084961  -65961.53906     33.397457
     140           0      1269.955322   2821.733398  -65961.53906     24.699389
     141           0       920.576538   2954.235107  -65961.53906     16.114199
     142           0       557.773071   3043.658203  -65961.53906      9.221440
     143           0       186.833054   3088.698730  -65961.53906      5.106643
     144           0      3088.698486    186.834412  -65576.92187    168.051788
     145           0      3043.657715    557.776428  -65576.92187    128.943451
     146           0      2954.233887    920.581055  -65576.92187     82.241867
     147           0      2821.731445   1269.959839  -65576.92187     43.872566
     148           0      2648.082520   1600.820190  -65576.92187     33.464054
     149           0      2435.817871   1908.338867  -65576.92187     43.398205
     150           0      2188.030762   2188.032471  -65576.92187     49.434582
     151           0      1908.336304   2435.819824  -65576.92187     47.138954
     152           0      1600.816406   2648.084961  -65576.92187     38.740688
     153           0      1269.955322   2821.733398  -65576.92187     27.584074
     154           0       920.576538   2954.235107  -65576.92187     16.696918
     155           0       557.773071   3043.658203  -65576.92187      8.194032
     156           0       186.833054   3088.698730  -65576.92187      3.226921
     157           0      3088.698486    186.834412  -65192.30468    161.559723
     158           0      3043.657715    557.776428  -65192.30468    124.111237
     159           0      2954.233887    920.581055  -65192.30468     79.326920
     160           0      2821.731445   1269.959839  -65192.30468     42.526997
     161           0      2648.082520   1600.820190  -65192.30468     33.108047
     162           0      2435.817871   1908.338867  -65192.30468     43.002590
     163           0      2188.030762   2188.032471  -65192.30468     48.449009
     164           0      1908.336304   2435.819824  -65192.30468     45.803253
     165           0      1600.816406   2648.084961  -65192.30468     37.302166
     166           0      1269.955322   2821.733398  -65192.30468     26.221109
     167           0       920.576538   2954.235107  -65192.30468     15.486796
     168           0       557.773071   3043.658203  -65192.30468      7.114666
     169           0       186.833054   3088.698730  -65192.30468      2.050270
     170           0      -186.834579   3088.698486  -69807.68750     17.817036
     171           0      -557.776672   3043.657715  -69807.68750     16.296469
     172           0      -920.581299   2954.233643  -69807.68750     12.809222
     173           0     -1269.960205   2821.731445  -69807.68750      7.099037
     174           0     -1600.820557   2648.082520  -69807.68750      3.795290
     175           0     -1908.339111   2435.817871  -69807.68750     13.369787
     176           0     -2188.032471   2188.030762  -69807.68750     24.812660
     177           0     -2435.819824   1908.336426  -69807.68750     35.273289
     178           0     -2648.084961   1600.816284  -69807.68750     42.427277
     179           0     -2821.733887   1269.954834  -69807.68750     43.755531
     180           0     -2954.235352    920.575928  -69807.68750     36.744507
     181           0     -3043.658203    557.772522  -69807.68750     22.667904
     182           0     -3088.698730    186.832916  -69807.68750     25.642776
     183           0      -186.834579   3088.698486  -69423.07812     18.393917
     184           0      -557.776672   3043.657715  -69423.07812     17.161556
     185           0      -920.581299   2954.233643  -69423.07812     14.178195
     186           0     -1269.960205   2821.731445  -69423.07812      9.105502
     187           0     -1600.820557   2648.082520  -69423.07812      4.482055
     188           0     -1908.339111   2435.817871  -69423.07812     11.808355
     189           0     -2188.032471   2188.030762  -69423.07812     23.190182
     190           0     -2435.819824   1908.336426  -69423.07812     34.138870
     191           0     -2648.084961   1600.816284  -69423.07812     42.032181
     192           0     -2821.733887   1269.954834  -69423.07812     44.212666
     193           0     -2954.235352    920.575928  -69423.07812     37.783875
     194           0     -3043.658203    557.772522  -69423.07812     20.905327
     195           0     -3088.698730    186.832916  -69423.07812     15.071500
     196           0      -186.834579   3088.698486  -69038.46093     16.264166
     197           0      -557.776672   3043.657715  -69038.46093     15.813505
     198           0      -920.581299   2954.233643  -69038.46093     14.246123
     199           0     -1269.960205   2821.731445  -69038.46093     11.098313
     200           0     -1600.820557   2648.082520  -69038.46093      7.673401
     201           0     -1908.339111   2435.817871  -69038.46093     10.870426
     202           0     -2188.032471   2188.030762  -69038.46093     20.407444
     203           0     -2435.819824   1908.336426  -69038.46093     30.991331
     204           0     -2648.084961   1600.816284  -69038.46093     39.499252
     205           0     -2821.733887   1269.954834  -69038.46093     43.161476
     206           0     -2954.235352    920.575928  -69038.46093     39.157692
     207           0     -3043.658203    557.772522  -69038.46093     24.550325
     208           0     -3088.698730    186.832916  -69038.46093     12.008458
     209           0      -186.834579   3088.698486  -68653.84375     15.338847
     210           0      -557.776672   3043.657715  -68653.84375     15.478562
     211           0      -920.581299   2954.233643  -68653.84375     14.958374
     212           0     -1269.960205   2821.731445  -68653.84375     13.195689
     213           0     -1600.820557   2648.082520  -68653.84375     10.912963
     214           0     -1908.339111   2435.817871  -68653.84375     12.243700
     215           0     -2188.032471   2188.030762  -68653.84375     19.613817
     216           0     -2435.819824   1908.336426  -68653.84375     29.405273
     217           0     -2648.084961   1600.816284  -68653.84375     38.137463
     218           0     -2821.733887   1269.954834  -68653.84375     43.072582
     219           0     -2954.235352    920.575928  -68653.84375     41.742237
     220           0     -3043.658203    557.772522  -68653.84375     32.827538
     221           0     -3088.698730    186.832916  -68653.84375     27.438139
     222           0      -186.834579   3088.698486  -68269.23437     13.888023
     223           0      -557.776672   3043.657715  -68269.23437     14.684221
     224           0      -920.581299   2954.233643  -68269.23437     15.325553
     225           0     -1269.960205   2821.731445  -68269.23437     15.143949
     226           0     -1600.820557   2648.082520  -68269.23437     14.458651
     227           0     -1908.339111   2435.817871  -68269.23437     15.447422
     228           0     -2188.032471   2188.030762  -68269.23437     20.464499
     229           0     -2435.819824   1908.336426  -68269.23437     28.474825
     230           0     -2648.084961   1600.816284  -68269.23437     36.710873
     231           0     -2821.733887   1269.954834  -68269.23437     42.601860
     232           0     -2954.235352    920.575928  -68269.23437     44.572826
     233           0     -3043.658203    557.772522  -68269.23437     43.298927
     234           0     -3088.698730    186.832916  -68269.23437     45.947559
     235           0      -186.834579   3088.698486  -67884.61718     12.570145
     236           0      -557.776672   3043.657715  -67884.61718     14.006156
     237           0      -920.581299   2954.233643  -67884.61718     15.768391
     238           0     -1269.960205   2821.731445  -67884.61718     17.103569
     239           0     -1600.820557   2648.082520  -67884.61718     17.985231
     240           0     -1908.339111   2435.817871  -67884.61718     19.351902
     241           0     -2188.032471   2188.030762  -67884.61718     22.676172
     242           0     -2435.819824   1908.336426  -67884.61718     28.461811
     243           0     -2648.084961   1600.816284  -67884.61718     35.595932
     244           0     -2821.733887   1269.954834  -67884.61718     42.389328
     245           0     -2954.235352    920.575928  -67884.61718     48.177498
     246           0     -3043.658203    557.772522  -67884.61718     54.364944
     247           0     -3088.698730    186.832916  -67884.61718     63.229160
     248           0      -186.834579   3088.698486  -67500.00000     11.169759
     249           0      -557.776672   3043.657715  -67500.00000     13.250237
     250           0      -920.581299   2954.233643  -67500.00000     16.129963
     251           0     -1269.960205   2821.731445  -67500.00000     18.996767
     252           0     -1600.820557   2648.082520  -67500.00000     21.501993
     253           0     -1908.339111   2435.817871  -67500.00000     23.675714
     254           0     -2188.032471   2188.030762  -67500.00000     25.967806
     255           0     -2435.819824   1908.336426  -67500.00000     29.358572
     256           0     -2648.084961   1600.816284  -67500.00000     34.729691
     257           0     -2821.733887   1269.954834  -67500.00000     42.159130
     258           0     -2954.235352    920.575928  -67500.00000     52.147232
     259           0     -3043.658203    557.772522  -67500.00000     65.671043
     260           0     -3088.698730    186.832916  -67500.00000     80.435173
     261           0      -186.834579   3088.698486  -67115.39062      9.725963
     262           0      -557.776672   3043.657715  -67115.39062     12.456306
     263           0      -920.581299   2954.233643  -67115.39062     16.454998
     264           0     -1269.960205   2821.731445  -67115.39062     20.860676
     265           0     -1600.820557   2648.082520  -67115.39062     25.019163
     266           0     -1908.339111   2435.817871  -67115.39062     28.213970
     267           0     -2188.032471   2188.030762  -67115.39062     29.993528
     268           0     -2435.819824   1908.336426  -67115.39062     31.099407
     269           0     -2648.084961   1600.816284  -67115.39062     34.104458
     270           0     -2821.733887   1269.954834  -67115.39062     42.020996
     271           0     -2954.235352    920.575928  -67115.39062     56.630516
     272           0     -3043.658203    557.772522  -67115.39062     77.131454
     273           0     -3088.698730    186.832916  -67115.39062     96.960999
     274           0      -186.834579   3088.698486  -66730.77343      8.326607
     275           0      -557.776672   3043.657715  -66730.77343     11.679911
     276           0      -920.581299   2954.233643  -66730.77343     16.750778
     277           0     -1269.960205   2821.731445  -66730.77343     22.646837
     278           0     -1600.820557   2648.082520  -66730.77343     28.401770
     279           0     -1908.339111   2435.817871  -66730.77343     32.698017
     280           0     -2188.032471   2188.030762  -66730.77343     34.283508
     281           0     -2435.819824   1908.336426  -66730.77343     33.389782
     282           0     -2648.084961   1600.816284  -66730.77343     33.702747
     283           0     -2821.733887   1269.954834  -66730.77343     41.935204
     284           0     -2954.235352    920.575928  -66730.77343     61.359840
     285           0     -3043.658203    557.772522  -66730.77343     88.205849
     286           0     -3088.698730    186.832916  -66730.77343    112.602722
     287           0      -186.834579   3088.698486  -66346.15625      6.730300
     288           0      -557.776672   3043.657715  -66346.15625     10.770638
     289           0      -920.581299   2954.233643  -66346.15625     17.007389
     290           0     -1269.960205   2821.731445  -66346.15625     24.548340
     291           0     -1600.820557   2648.082520  -66346.15625     32.089920
     292           0     -1908.339111   2435.817871  -66346.15625     37.707306
     293           0     -2188.032471   2188.030762  -66346.15625     39.430241
     294           0     -2435.819824   1908.336426  -66346.15625     36.657078
     295           0     -2648.084961   1600.816284  -66346.15625     33.640961
     296           0     -2821.733887   1269.954834  -66346.15625     42.005173
     297           0     -2954.235352    920.575928  -66346.15625     66.870247
     298           0     -3043.658203    557.772522  -66346.15625    100.393066
     299           0     -3088.698730    186.832916  -66346.15625    129.516159
     300           0      -186.834579   3088.698486  -65961.53906      5.508442
     301           0      -557.776672   3043.657715  -65961.53906     10.012453
     302           0      -920.581299   2954.233643  -65961.53906     17.099936
     303           0     -1269.960205   2821.731445  -65961.53906     25.847773
     304           0     -1600.820557   2648.082520  -65961.53906     34.689659
     305           0     -1908.339111   2435.817871  -65961.53906     41.300270
     306           0     -2188.032471   2188.030762  -65961.53906     43.147232
     307           0     -2435.819824   1908.336426  -65961.53906     39.130005
     308           0     -2648.084961   1600.816284  -65961.53906     33.345093
     309           0     -2821.733887   1269.954834  -65961.53906     41.890484
     310           0     -2954.235352    920.575928  -65961.53906     71.001968
     311           0     -3043.658203    557.772522  -65961.53906    108.899178
     312           0     -3088.698730    186.832916  -65961.53906    141.170242
     313           0      -186.834579   3088.698486  -65576.92187      3.760269
     314           0      -557.776672   3043.657715  -65576.92187      9.066819
     315           0      -920.581299   2954.233643  -65576.92187     17.760363
     316           0     -1269.960205   2821.731445  -65576.92187     28.840185
     317           0     -1600.820557   2648.082520  -65576.92187     40.177074
     318           0     -1908.339111   2435.817871  -65576.92187     48.721687
     319           0     -2188.032471   2188.030762  -65576.92187     51.084217
     320           0     -2435.819824   1908.336426  -65576.92187     44.934055
     321           0     -2648.084961   1600.816284  -65576.92187     34.215042
     322           0     -2821.733887   1269.954834  -65576.92187     42.844173
     323           0     -2954.235352    920.575928  -65576.92187     80.620796
     324           0     -3043.658203    557.772522  -65576.92187    127.245995
     325           0     -3088.698730    186.832916  -65576.92187    166.441208
     326           0      -186.834579   3088.698486  -65192.30468      2.766824
     327           0      -557.776672   3043.657715  -65192.30468      8.045423
     328           0      -920.581299   2954.233643  -65192.30468     16.576200
     329           0     -1269.960205   2821.731445  -65192.30468     27.494215
     330           0     -1600.820557   2648.082520  -65192.30468     38.754696
     331           0     -1908.339111   2435.817871  -65192.30468     47.400414
     332           0     -2188.032471   2188.030762  -65192.30468     50.116444
     333           0     -2435.819824   1908.336426  -65192.30468     44.568024
     334           0     -2648.084961   1600.816284  -65192.30468     33.901997
     335           0     -2821.733887   1269.954834  -65192.30468     41.478626
     336           0     -2954.235352    920.575928  -65192.30468     77.610497
     337           0     -3043.658203    557.772522  -65192.30468    122.309242
     338           0     -3088.698730    186.832916  -65192.30468    159.828949
     339           0       186.794785  -3088.703125  -69807.68750     23.438702
     340           0       557.658447  -3043.681641  -69807.68750     29.388729
     341           0       920.394897  -2954.293945  -69807.68750     35.701260
     342           0      1269.714600  -2821.844482  -69807.68750     38.192009
     343           0      1600.527100  -2648.262207  -69807.68750     34.348610
     344           0      1908.010010  -2436.078613  -69807.68750     25.067698
     345           0      2187.680664  -2188.385986  -69807.68750     26.071686
     346           0      2435.463867  -1908.794678  -69807.68750     43.121761
     347           0      2647.746094  -1601.381104  -69807.68750     57.017437
     348           0      2821.433838  -1270.626953  -69807.68750     58.934013
     349           0       186.794785  -3088.703125  -69423.07812     20.214792
     350           0       557.658447  -3043.681641  -69423.07812     27.630178
     351           0       920.394897  -2954.293945  -69423.07812     35.100998
     352           0      1269.714600  -2821.844482  -69423.07812     38.334312
     353           0      1600.527100  -2648.262207  -69423.07812     34.772064
     354           0      1908.010010  -2436.078613  -69423.07812     23.173538
     355           0      2187.680664  -2188.385986  -69423.07812     16.500082
     356           0      2435.463867  -1908.794678  -69423.07812     38.091335
     357           0      2647.746094  -1601.381104  -69423.07812     57.783325
     358           0      2821.433838  -1270.626953  -69423.07812     59.074673
     359           0       186.794785  -3088.703125  -69038.46093     11.000211
     360           0       557.658447  -3043.681641  -69038.46093     22.536125
     361           0       920.394897  -2954.293945  -69038.46093     32.308384
     362           0      1269.714600  -2821.844482  -69038.46093     37.154812
     363           0      1600.527100  -2648.262207  -69038.46093     35.148468
     364           0      1908.010010  -2436.078613  -69038.46093     23.540318
     365           0      2187.680664  -2188.385986  -69038.46093      4.262317
     366           0      2435.463867  -1908.794678  -69038.46093     32.744583
     367           0      2647.746094  -1601.381104  -69038.46093     56.658112
     368           0      2821.433838  -1270.626953  -69038.46093     60.957024
     369           0       186.794785  -3088.703125  -68653.84375      7.176074
     370           0       557.658447  -3043.681641  -68653.84375     20.634605
     371           0       920.394897  -2954.293945  -68653.84375     31.020285
     372           0      1269.714600  -2821.844482  -68653.84375     36.749073
     373           0      1600.527100  -2648.262207  -68653.84375     36.319309
     374           0      1908.010010  -2436.078613  -68653.84375     28.198324
     375           0      2187.680664  -2188.385986  -68653.84375     18.244362
     376           0      2435.463867  -1908.794678  -68653.84375     36.661461
     377           0      2647.746094  -1601.381104  -68653.84375     57.516125
     378           0      2821.433838  -1270.626953  -68653.84375     67.824928
     379           0       186.794785  -3088.703125  -68269.23437     10.631630
     380           0       557.658447  -3043.681641  -68269.23437     20.714952
     381           0       920.394897  -2954.293945  -68269.23437     30.140285
     382           0      1269.714600  -2821.844482  -68269.23437     36.127975
     383           0      1600.527100  -2648.262207  -68269.23437     37.623394
     384           0      1908.010010  -2436.078613  -68269.23437     35.095402
     385           0      2187.680664  -2188.385986  -68269.23437     34.564697
     386           0      2435.463867  -1908.794678  -68269.23437     46.603985
     387           0      2647.746094  -1601.381104  -68269.23437     59.218410
     388           0      2821.433838  -1270.626953  -68269.23437     74.541306
     389           0       186.794785  -3088.703125  -67884.61718     17.619478
     390           0       557.658447  -3043.681641  -67884.61718     23.011324
     391           0       920.394897  -2954.293945  -67884.61718     29.923599
     392           0      1269.714600  -2821.844482  -67884.61718     35.660873
     393           0      1600.527100  -2648.262207  -67884.61718     39.492355
     394           0      1908.010010  -2436.078613  -67884.61718     43.130951
     395           0      2187.680664  -2188.385986  -67884.61718     49.706184
     396           0      2435.463867  -1908.794678  -67884.61718     59.103168
     397           0      2647.746094  -1601.381104  -67884.61718     63.437725
     398           0      2821.433838  -1270.626953  -67884.61718     81.110855
     399           0       186.794785  -3088.703125  -67500.00000     25.390963
     400           0       557.658447  -3043.681641  -67500.00000     26.939472
     401           0       920.394897  -2954.293945  -67500.00000     30.349764
     402           0      1269.714600  -2821.844482  -67500.00000     35.200005
     403           0      1600.527100  -2648.262207  -67500.00000     41.692169
     404           0      1908.010010  -2436.078613  -67500.00000     51.677010
     405           0      2187.680664  -2188.385986  -67500.00000     64.670334
     406           0      2435.463867  -1908.794678  -67500.00000     73.187370
     407           0      2647.746094  -1601.381104  -67500.00000     69.883324
     408           0      2821.433838  -1270.626953  -67500.00000     85.979095
     409           0       186.794785  -3088.703125  -67115.39062     33.414917
     410           0       557.658447  -3043.681641  -67115.39062     31.934589
     411           0       920.394897  -2954.293945  -67115.39062     31.371304
     412           0      1269.714600  -2821.844482  -67115.39062     34.772518
     413           0      1600.527100  -2648.262207  -67115.39062     44.343376
     414           0      1908.010010  -2436.078613  -67115.39062     60.621738
     415           0      2187.680664  -2188.385986  -67115.39062     78.969460
     416           0      2435.463867  -1908.794678  -67115.39062     88.045509
     417           0      2647.746094  -1601.381104  -67115.39062     79.685387
     418           0      2821.433838  -1270.626953  -67115.39062     89.741455
     419           0       186.794785  -3088.703125  -66730.77343     41.233467
     420           0       557.658447  -3043.681641  -66730.77343     37.313427
     421           0       920.394897  -2954.293945  -66730.77343     32.796440
     422           0      1269.714600  -2821.844482  -66730.77343     34.317650
     423           0      1600.527100  -2648.262207  -66730.77343     47.284142
     424           0      1908.010010  -2436.078613  -66730.77343     69.452759
     425           0      2187.680664  -2188.385986  -66730.77343     92.457268
     426           0      2435.463867  -1908.794678  -66730.77343    102.686211
     427           0      2647.746094  -1601.381104  -66730.77343     91.068794
     428           0      2821.433838  -1270.626953  -66730.77343     92.160469
     429           0       186.794785  -3088.703125  -66346.15625     49.887955
     430           0       557.658447  -3043.681641  -66346.15625     43.702763
     431           0       920.394897  -2954.293945  -66346.15625     34.966022
     432           0      1269.714600  -2821.844482  -66346.15625     33.957047
     433           0      1600.527100  -2648.262207  -66346.15625     50.881378
     434           0      1908.010010  -2436.078613  -66346.15625     79.352165
     435           0      2187.680664  -2188.385986  -66346.15625    107.008827
     436           0      2435.463867  -1908.794678  -66346.15625    119.703003
     437           0      2647.746094  -1601.381104  -66346.15625    106.886192
     438           0      2821.433838  -1270.626953  -66346.15625     94.987602
     439           0       186.794785  -3088.703125  -65961.53906     56.201775
     440           0       557.658447  -3043.681641  -65961.53906     48.487679
     441           0       920.394897  -2954.293945  -65961.53906     36.473301
     442           0      1269.714600  -2821.844482  -65961.53906     33.417927
     443           0      1600.527100  -2648.262207  -65961.53906     53.584373
     444           0      1908.010010  -2436.078613  -65961.53906     86.351173
     445           0      2187.680664  -2188.385986  -65961.53906    117.088974
     446           0      2435.463867  -1908.794678  -65961.53906    131.143845
     447           0      2647.746094  -1601.381104  -65961.53906    118.535507
     448           0      2821.433838  -1270.626953  -65961.53906     96.281044
     449           0       186.794785  -3088.703125  -65576.92187     68.464767
     450           0       557.658447  -3043.681641  -65576.92187     58.037830
     451           0       920.394897  -2954.293945  -65576.92187     40.524666
     452           0      1269.714600  -2821.844482  -65576.92187     33.190487
     453           0      1600.527100  -2648.262207  -65576.92187     60.404350
     454           0      1908.010010  -2436.078613  -65576.92187    101.421089
     455           0      2187.680664  -2188.385986  -65576.92187    138.881149
     456           0      2435.463867  -1908.794678  -65576.92187    157.779343
     457           0      2647.746094  -1601.381104  -65576.92187    143.114151
     458           0      2821.433838  -1270.626953  -65576.92187    100.162048
     459           0       186.794785  -3088.703125  -65192.30468     67.531349
     460           0       557.658447  -3043.681641  -65192.30468     57.573532
     461           0       920.394897  -2954.293945  -65192.30468     40.453846
     462           0      1269.714600  -2821.844482  -65192.30468     32.768055
     463           0      1600.527100  -2648.262207  -65192.30468     58.359184
     464           0      1908.010010  -2436.078613  -65192.30468     97.706207
     465           0      2187.680664  -2188.385986  -65192.30468    133.428467
     466           0      2435.463867  -1908.794678  -65192.30468    152.678284
     467           0      2647.746094  -1601.381104  -65192.30468    141.282883
     468           0      2821.433838  -1270.626953  -65192.30468     93.461639
     469           0      2954.035645   -921.190186  -69807.68750     63.561974
     470           0      3043.581055   -558.149719  -69807.68750     65.485878
     471           0      3088.683105   -186.959671  -69807.68750     49.544113
     472           0      2954.035645   -921.190186  -69423.07812     66.663857
     473           0      3043.581055   -558.149719  -69423.07812     67.673065
     474           0      3088.683105   -186.959671  -69423.07812     46.281013
     475           0      2954.035645   -921.190186  -69038.46093     70.149727
     476           0      3043.581055   -558.149719  -69038.46093     67.926483
     477           0      3088.683105   -186.959671  -69038.46093     44.467358
     478           0      2954.035645   -921.190186  -68653.84375     77.992149
     479           0      3043.581055   -558.149719  -68653.84375     69.937401
     480           0      3088.683105   -186.959671  -68653.84375     49.898544
     481           0      2954.035645   -921.190186  -68269.23437     85.561676
     482           0      3043.581055   -558.149719  -68269.23437     72.367653
     483           0      3088.683105   -186.959671  -68269.23437     60.392895
     484           0      2954.035645   -921.190186  -67884.61718     93.138435
     485           0      3043.581055   -558.149719  -67884.61718     77.142113
     486           0      3088.683105   -186.959671  -67884.61718     73.371994
     487           0      2954.035645   -921.190186  -67500.00000     99.098877
     488           0      3043.581055   -558.149719  -67500.00000     83.787827
     489           0      3088.683105   -186.959671  -67500.00000     88.291977
     490           0      2954.035645   -921.190186  -67115.39062    104.003616
     491           0      3043.581055   -558.149719  -67115.39062     93.678520
     492           0      3088.683105   -186.959671  -67115.39062    104.392395
     493           0      2954.035645   -921.190186  -66730.77343    107.423340
     494           0      3043.581055   -558.149719  -66730.77343    105.149025
     495           0      3088.683105   -186.959671  -66730.77343    120.599213
     496           0      2954.035645   -921.190186  -66346.15625    110.927475
     497           0      3043.581055   -558.149719  -66346.15625    121.369736
     498           0      3088.683105   -186.959671  -66346.15625    139.722244
     499           0      2954.035645   -921.190186  -65961.53906    112.416580
     500           0      3043.581055   -558.149719  -65961.53125    133.580750
     501           0      3088.683105   -186.959671  -65961.53906    152.939194
     502           0      2954.035645   -921.190186  -65576.92187    116.589523
     503           0      3043.581055   -558.149719  -65576.92187    160.228943
     504           0      3088.683105   -186.959671  -65576.92187    183.194244
     505           0      2954.035645   -921.190186  -65192.30468    110.662941
     506           0      3043.581055   -558.149719  -65192.30468    159.762085
     507           0      3088.683105   -186.959671  -65192.30468    177.703156
     508           0     -3088.683105   -186.960480  -69807.68750     48.558018
     509           0     -3043.581055   -558.150757  -69807.68750     64.485641
     510           0     -2954.035645   -921.190308  -69807.68750     62.918911
     511           0     -3088.683105   -186.960480  -69423.07812     45.129925
     512           0     -3043.581055   -558.150757  -69423.07812     66.602730
     513           0     -2954.035645   -921.190308  -69423.07812     65.867607
     514           0     -3088.683105   -186.960480  -69038.46093     43.183548
     515           0     -3043.581055   -558.150757  -69038.46093     66.809639
     516           0     -2954.035645   -921.190308  -69038.46093     69.291260
     517           0     -3088.683105   -186.960480  -68653.84375     48.698097
     518           0     -3043.581055   -558.150757  -68653.84375     68.801346
     519           0     -2954.035645   -921.190308  -68653.84375     77.133255
     520           0     -3088.683105   -186.960480  -68269.23437     59.370426
     521           0     -3043.581055   -558.150757  -68269.23437     71.270561
     522           0     -2954.035645   -921.190308  -68269.23437     84.698372
     523           0     -3088.683105   -186.960480  -67884.61718     72.485641
     524           0     -3043.581055   -558.150757  -67884.61718     76.119003
     525           0     -2954.035645   -921.190308  -67884.61718     92.276993
     526           0     -3088.683105   -186.960480  -67500.00000     87.485764
     527           0     -3043.581055   -558.150757  -67500.00000     82.896614
     528           0     -2954.035645   -921.190308  -67500.00000     98.224930
     529           0     -3088.683105   -186.960480  -67115.39062    103.598282
     530           0     -3043.581055   -558.150757  -67115.39062     92.943848
     531           0     -2954.035645   -921.190308  -67115.39062    103.129509
     532           0     -3088.683105   -186.960480  -66730.77343    119.749657
     533           0     -3043.581055   -558.150757  -66730.77343    104.580536
     534           0     -2954.035645   -921.190308  -66730.77343    106.546593
     535           0     -3088.683105   -186.960480  -66346.15625    138.743134
     536           0     -3043.581055   -558.150757  -66346.15625    120.937889
     537           0     -2954.035645   -921.190308  -66346.15625    110.099251
     538           0     -3088.683105   -186.960480  -65961.53906    151.769287
     539           0     -3043.581055   -558.150757  -65961.53906    133.169434
     540           0     -2954.035645   -921.190308  -65961.53906    111.600838
     541           0     -3088.683105   -186.960480  -65576.92187    181.792084
     542           0     -3043.581055   -558.150757  -65576.92187    159.614441
     543           0     -2954.035645   -921.190308  -65576.92187    115.621964
     544           0     -3088.683105   -186.960480  -65192.30468    176.120911
     545           0     -3043.581055   -558.150757  -65192.30468    158.331696
     546           0     -2954.035645   -921.190308  -65192.30468    108.880966
     547           0     -2821.431885  -1270.630615  -69807.68750     58.529655
     548           0     -2647.743164  -1601.385864  -69807.68750     57.024082
     549           0     -2435.459229  -1908.800293  -69807.68750     43.427052
     550           0     -2187.676270  -2188.390625  -69807.68750     26.448153
     551           0     -1908.004395  -2436.082764  -69807.68750     25.167850
     552           0     -1600.520996  -2648.266113  -69807.68750     34.421417
     553           0     -1269.708374  -2821.846924  -69807.68750     38.333694
     554           0      -920.387939  -2954.296387  -69807.68750     35.869778
     555           0      -557.652283  -3043.682617  -69807.68750     29.543406
     556           0      -186.789612  -3088.704102  -69807.68750     23.511858
     557           0     -2821.431885  -1270.630615  -69423.07812     58.829365
     558           0     -2647.743164  -1601.385864  -69423.07812     57.860668
     559           0     -2435.459229  -1908.800293  -69423.07812     38.463161
     560           0     -2187.676270  -2188.390625  -69423.07812     16.863844
     561           0     -1908.004395  -2436.082764  -69423.07812     23.167385
     562           0     -1600.520996  -2648.266113  -69423.07812     34.833549
     563           0     -1269.708374  -2821.846924  -69423.07812     38.475044
     564           0      -920.387939  -2954.296387  -69423.07812     35.273067
     565           0      -557.652283  -3043.682617  -69423.07812     27.803036
     566           0      -186.789612  -3088.704102  -69423.07812     20.306595
     567           0     -2821.431885  -1270.630615  -69038.46093     60.825039
     568           0     -2647.743164  -1601.385864  -69038.46093     56.765060
     569           0     -2435.459229  -1908.800293  -69038.46093     33.081497
     570           0     -2187.676270  -2188.390625  -69038.46093      4.204083
     571           0     -1908.004395  -2436.082764  -69038.46093     23.416590
     572           0     -1600.520996  -2648.266113  -69038.46093     35.216228
     573           0     -1269.708374  -2821.846924  -69038.46093     37.311295
     574           0      -920.387939  -2954.296387  -69038.46093     32.506157
     575           0      -557.652283  -3043.682617  -69038.46093     22.764557
     576           0      -186.789612  -3088.704102  -69038.46093     11.182796
     577           0     -2821.431885  -1270.630615  -68653.84375     67.728554
     578           0     -2647.743164  -1601.385864  -68653.84375     57.616756
     579           0     -2435.459229  -1908.800293  -68653.84375     36.864491
     580           0     -2187.676270  -2188.390625  -68653.84375     18.113047
     581           0     -1908.004395  -2436.082764  -68653.84375     28.094360
     582           0     -1600.520996  -2648.266113  -68653.84375     36.405010
     583           0     -1269.708374  -2821.846924  -68653.84375     36.911858
     584           0      -920.387939  -2954.296387  -68653.84375     31.231234
     585           0      -557.652283  -3043.682617  -68653.84375     20.887589
     586           0      -186.789612  -3088.704102  -68653.84375      7.453420
     587           0     -2821.431885  -1270.630615  -68269.23437     74.471207
     588           0     -2647.743164  -1601.385864  -68269.23437     59.254524
     589           0     -2435.459229  -1908.800293  -68269.23437     46.639908
     590           0     -2187.676270  -2188.390625  -68269.23437     34.514931
     591           0     -1908.004395  -2436.082764  -68269.23437     35.085644
     592           0     -1600.520996  -2648.266113  -68269.23437     37.732517
     593           0     -1269.708374  -2821.846924  -68269.23437     36.295963
     594           0      -920.387939  -2954.296387  -68269.23437     30.358450
     595           0      -557.652283  -3043.682617  -68269.23437     20.960897
     596           0      -186.789612  -3088.704102  -68269.23437     10.810179
     597           0     -2821.431885  -1270.630615  -67884.61718     81.041878
     598           0     -2647.743164  -1601.385864  -67884.61718     63.381310
     599           0     -2435.459229  -1908.800293  -67884.61718     59.039391
     600           0     -2187.676270  -2188.390625  -67884.61718     49.741917
     601           0     -1908.004395  -2436.082764  -67884.61718     43.225937
     602           0     -1600.520996  -2648.266113  -67884.61718     39.631840
     603           0     -1269.708374  -2821.846924  -67884.61718     35.832592
     604           0      -920.387939  -2954.296387  -67884.61718     30.139626
     605           0      -557.652283  -3043.682617  -67884.61718     23.217203
     606           0      -186.789612  -3088.704102  -67884.61718     17.716011
     607           0     -2821.431885  -1270.630615  -67500.00000     85.907890
     608           0     -2647.743164  -1601.385864  -67500.00000     69.691628
     609           0     -2435.459229  -1908.800293  -67500.00000     73.078995
     610           0     -2187.676270  -2188.390625  -67500.00000     64.811371
     611           0     -1908.004395  -2436.082764  -67500.00000     51.878075
     612           0     -1600.520996  -2648.266113  -67500.00000     41.859661
     613           0     -1269.708374  -2821.846924  -67500.00000     35.377502
     614           0      -920.387939  -2954.296387  -67500.00000     30.552507
     615           0      -557.652283  -3043.682617  -67500.00000     27.093721
     616           0      -186.789612  -3088.704102  -67500.00000     25.446564
     617           0     -2821.431885  -1270.630615  -67115.39062     89.651169
     618           0     -2647.743164  -1601.385864  -67115.39062     79.355316
     619           0     -2435.459229  -1908.800293  -67115.39062     87.949142
     620           0     -2187.676270  -2188.390625  -67115.39062     79.216553
     621           0     -1908.004395  -2436.082764  -67115.39062     60.911217
     622           0     -1600.520996  -2648.266113  -67115.39062     44.544495
     623           0     -1269.708374  -2821.846924  -67115.39062     34.957825
     624           0      -920.387939  -2954.296387  -67115.39062     31.549204
     625           0      -557.652283  -3043.682617  -67115.39062     32.040207
     626           0      -186.789612  -3088.704102  -67115.39062     33.446140
     627           0     -2821.431885  -1270.630615  -66730.77343     92.039864
     628           0     -2647.743164  -1601.385864  -66730.77343     90.601616
     629           0     -2435.459229  -1908.800293  -66730.77343    102.658836
     630           0     -2187.676270  -2188.390625  -66730.77343     92.822235
     631           0     -1908.004395  -2436.082764  -66730.77343     69.809807
     632           0     -1600.520996  -2648.266113  -66730.77343     47.519417
     633           0     -1269.708374  -2821.846924  -66730.77343     34.517406
     634           0      -920.387939  -2954.296387  -66730.77343     32.939384
     635           0      -557.652283  -3043.682617  -66730.77343     37.377396
     636           0      -186.789612  -3088.704102  -66730.77343     41.249176
     637           0     -2821.431885  -1270.630615  -66346.15625     94.803978
     638           0     -2647.743164  -1601.385864  -66346.15625    106.331444
     639           0     -2435.459229  -1908.800293  -66346.15625    119.810562
     640           0     -2187.676270  -2188.390625  -66346.15625    107.469566
     641           0     -1908.004395  -2436.082764  -66346.15625     79.755020
     642           0     -1600.520996  -2648.266113  -66346.15625     51.173702
     643           0     -1269.708374  -2821.846924  -66346.15625     34.166363
     644           0      -920.387939  -2954.296387  -66346.15625     35.064785
     645           0      -557.652283  -3043.682617  -66346.15625     43.730106
     646           0      -186.789612  -3088.704102  -66346.15625     49.890701
     647           0     -2821.431885  -1270.630615  -65961.53906     96.040085
     648           0     -2647.743164  -1601.385864  -65961.53906    117.995537
     649           0     -2435.459229  -1908.800293  -65961.53906    131.445892
     650           0     -2187.676270  -2188.390625  -65961.53906    117.623817
     651           0     -1908.004395  -2436.082764  -65961.53906     86.799118
     652           0     -1600.520996  -2648.266113  -65961.53125     53.934330
     653           0     -1269.708374  -2821.846924  -65961.53125     33.634487
     654           0      -920.387939  -2954.296387  -65961.53125     36.535923
     655           0      -557.652283  -3043.682617  -65961.53125     48.485653
     656           0      -186.789612  -3088.704102  -65961.53906     56.196392
     657           0     -2821.431885  -1270.630615  -65576.92187    100.068649
     658           0     -2647.743164  -1601.385864  -65576.92187    142.858231
     659           0     -2435.459229  -1908.800293  -65576.92187    158.300186
     660           0     -2187.676270  -2188.390625  -65576.92187    139.444366
     661           0     -1908.004395  -2436.082764  -65576.92187    101.922897
     662           0     -1600.520996  -2648.266113  -65576.92187     60.810658
     663           0     -1269.708374  -2821.846924  -65576.92187     33.430035
     664           0      -920.387939  -2954.296387  -65576.92187     40.523148
     665           0      -557.652283  -3043.682617  -65576.92187     58.003399
     666           0      -186.789612  -3088.704102  -65576.92187     68.450676
     667           0     -2821.431885  -1270.630615  -65192.30468     94.033913
     668           0     -2647.743164  -1601.385864  -65192.30468    141.876648
     669           0     -2435.459229  -1908.800293  -65192.30468    153.376755
     670           0     -2187.676270  -2188.390625  -65192.30468    134.107941
     671           0     -1908.004395  -2436.082764  -65192.30468     98.310928
     672           0     -1600.520996  -2648.266113  -65192.30468     58.859024
     673           0     -1269.708374  -2821.846924  -65192.30468     33.019703
     674           0      -920.387939  -2954.296387  -65192.30468     40.419563
     675           0      -557.652283  -3043.682617  -65192.30468     57.513546
     676           0      -186.789612  -3088.704102  -65192.30468     67.508492
     677           0      3088.698242    186.835236  -64812.04687    167.507492
     678           0      3043.657227    557.778564  -64812.04687    138.711319
     679           0      2954.232910    920.583740  -64812.04687    101.434013
     680           0      2821.730225   1269.962524  -64812.04687     71.507217
     681           0      2648.081055   1600.822510  -64812.04687     60.328938
     682           0      2435.816406   1908.340698  -64812.04687     61.241108
     683           0      2188.029785   2188.033447  -64812.04687     60.142384
     684           0      1908.335938   2435.820068  -64812.04687     52.727680
     685           0      1600.816650   2648.084717  -64812.04687     40.340485
     686           0      1269.956299   2821.732910  -64812.04687     26.053366
     687           0       920.578003   2954.234619  -64812.04687     13.032093
     688           0       557.774414   3043.657959  -64812.04687      5.987131
     689           0       186.833771   3088.698730  -64812.04687      9.263443
     690           0      3088.698242    186.836029  -64436.14062    177.199402
     691           0      3043.656738    557.780640  -64436.14062    147.420776
     692           0      2954.231934    920.586426  -64436.14062    107.634232
     693           0      2821.729004   1269.965088  -64436.14062     73.957443
     694           0      2648.079590   1600.824951  -64436.14062     60.623714
     695           0      2435.815186   1908.342407  -64436.14062     61.201927
     696           0      2188.028809   2188.034424  -64436.14062     60.311630
     697           0      1908.335693   2435.820313  -64436.14062     52.536720
     698           0      1600.816895   2648.084473  -64436.14062     39.455650
     699           0      1269.957275   2821.732910  -64436.14062     24.278925
     700           0       920.579468   2954.234375  -64436.14062     10.371048
     701           0       557.775757   3043.657959  -64436.14062      4.408574
     702           0       186.834488   3088.698242  -64436.14062     10.046264
     703           0      3088.698242    186.835999  -64060.24218    155.832077
     704           0      3043.656738    557.780518  -64060.24218    134.708786
     705           0      2954.231934    920.586304  -64060.24218    102.810501
     706           0      2821.729004   1269.965088  -64060.24218     74.635239
     707           0      2648.079590   1600.824951  -64060.24218     60.610809
     708           0      2435.815430   1908.342407  -64060.24218     57.462189
     709           0      2188.028809   2188.034424  -64060.24218     53.891384
     710           0      1908.335693   2435.820313  -64060.24218     45.411583
     711           0      1600.816895   2648.084473  -64060.24218     32.798595
     712           0      1269.957275   2821.732910  -64060.24218     18.774876
     713           0       920.579468   2954.234375  -64060.24218      5.970994
     714           0       557.775757   3043.657959  -64060.24218      4.802250
     715           0       186.834488   3088.698242  -64060.24218     11.206004
     716           0      3088.698242    186.835999  -63684.33984    148.303986
     717           0      3043.656738    557.780457  -63684.33984    131.528503
     718           0      2954.231934    920.586243  -63684.33984    102.889328
     719           0      2821.729004   1269.965088  -63684.33984     76.348068
     720           0      2648.079590   1600.824951  -63684.33984     61.479992
     721           0      2435.815430   1908.342285  -63684.33984     56.059124
     722           0      2188.028809   2188.034424  -63684.33984     50.898560
     723           0      1908.335693   2435.820313  -63684.33984     41.580879
     724           0      1600.816895   2648.084473  -63684.33984     28.829491
     725           0      1269.957275   2821.732910  -63684.33984     15.005052
     726           0       920.579468   2954.234375  -63684.33984      2.539615
     727           0       557.775757   3043.657959  -63684.33984      7.172832
     728           0       186.834488   3088.698242  -63684.33984     13.233054
     729           0      3088.698242    186.835968  -63308.43359    135.923218
     730           0      3043.656738    557.780457  -63308.43359    125.096191
     731           0      2954.231934    920.586121  -63308.43359    101.539665
     732           0      2821.729004   1269.964966  -63308.43359     77.757881
     733           0      2648.079590   1600.824829  -63308.43359     62.393986
     734           0      2435.815430   1908.342285  -63308.43359     54.475647
     735           0      2188.028809   2188.034424  -63308.43359     47.328156
     736           0      1908.335693   2435.820313  -63308.43359     37.233681
     737           0      1600.816895   2648.084473  -63308.43359     24.597174
     738           0      1269.957153   2821.732910  -63308.43359     11.597756
     739           0       920.579346   2954.234375  -63308.43359      3.247103
     740           0       557.775635   3043.657959  -63308.43359     10.038812
     741           0       186.834412   3088.698242  -63308.43359     15.380464
     742           0      3088.698242    186.835953  -62932.53125    125.390373
     743           0      3043.656738    557.780396  -62932.53125    119.938240
     744           0      2954.232178    920.586121  -62932.53125    100.723312
     745           0      2821.729004   1269.964844  -62932.53125     79.368393
     746           0      2648.079590   1600.824829  -62932.53125     63.670506
     747           0      2435.815430   1908.342285  -62932.53125     53.718819
     748           0      2188.028809   2188.034424  -62932.53125     44.761784
     749           0      1908.335693   2435.820313  -62932.53125     33.852917
     750           0      1600.816895   2648.084473  -62932.53125     21.383448
     751           0      1269.957153   2821.732910  -62932.53125      9.797157
     752           0       920.579224   2954.234375  -62932.53125      7.059132
     753           0       557.775513   3043.657959  -62932.53125     13.290887
     754           0       186.834335   3088.698242  -62932.53125     17.900349
     755           0      3088.698242    186.835922  -62556.62500    114.553833
     756           0      3043.656738    557.780396  -62556.62500    114.645782
     757           0      2954.232178    920.586121  -62556.62500     99.940201
     758           0      2821.729492   1269.964844  -62556.62500     81.036041
     759           0      2648.079834   1600.824707  -62556.62500     65.244987
     760           0      2435.815430   1908.342285  -62556.62500     53.525341
     761           0      2188.028809   2188.034424  -62556.62500     42.900860
     762           0      1908.335693   2435.820313  -62556.62500     31.318405
     763           0      1600.816895   2648.084473  -62556.62500     19.381622
     764           0      1269.957153   2821.732910  -62556.62500     10.438903
     765           0       920.579224   2954.234375  -62556.62500     11.178058
     766           0       557.775513   3043.657959  -62556.62500     16.628267
     767           0       186.834335   3088.698242  -62556.62500     20.543671
     768           0      3088.698242    186.835907  -62180.72656    104.049934
     769           0      3043.656738    557.780334  -62180.72656    109.604073
     770           0      2954.232178    920.586060  -62180.72656     99.290245
     771           0      2821.729492   1269.964844  -62180.72656     82.809723
     772           0      2648.079834   1600.824707  -62180.72656     67.120186
     773           0      2435.815430   1908.342285  -62180.72656     54.010963
     774           0      2188.028809   2188.034424  -62180.72656     41.986343
     775           0      1908.335693   2435.820313  -62180.72656     29.966080
     776           0      1600.816895   2648.084473  -62180.72656     19.057726
     777           0      1269.957153   2821.732910  -62180.72656     13.194490
     778           0       920.579224   2954.234375  -62180.72656     15.402110
     779           0       557.775513   3043.657959  -62180.72656     20.081211
     780           0       186.834335   3088.698242  -62180.72656     23.344786
     781           0      3088.698242    186.835876  -61804.82421     94.031082
     782           0      3043.656738    557.780273  -61804.82421    104.677910
     783           0      2954.232178    920.585938  -61804.82421     98.786209
     784           0      2821.729492   1269.964722  -61804.82421     84.679192
     785           0      2648.080078   1600.824707  -61804.82421     69.302315
     786           0      2435.815430   1908.342041  -61804.82421     55.159130
     787           0      2188.029053   2188.034180  -61804.82421     42.076794
     788           0      1908.335693   2435.820313  -61804.82421     29.964346
     789           0      1600.816895   2648.084473  -61804.82421     20.511259
     790           0      1269.957153   2821.732910  -61804.82421     17.098394
     791           0       920.579224   2954.234375  -61804.82421     19.678635
     792           0       557.775513   3043.657959  -61804.82421     23.599165
     793           0       186.834335   3088.698242  -61804.82421     26.251278
     794           0      3088.698242    186.835876  -61428.91796     84.703049
     795           0      3043.656738    557.780151  -61428.91796     99.909904
     796           0      2954.232178    920.585815  -61428.91796     98.386337
     797           0      2821.729492   1269.964600  -61428.91796     86.674446
     798           0      2648.080078   1600.824463  -61428.91796     71.768845
     799           0      2435.815430   1908.342041  -61428.91796     56.954876
     800           0      2188.029053   2188.034180  -61428.91796     43.186523
     801           0      1908.335693   2435.820313  -61428.91796     31.331333
     802           0      1600.816895   2648.084473  -61428.91796     23.431097
     803           0      1269.957153   2821.732910  -61428.91796     21.555464
     804           0       920.579224   2954.234375  -61428.91796     24.002888
     805           0       557.775513   3043.657959  -61428.91796     27.183235
     806           0       186.834335   3088.698242  -61428.91796     29.255386
     807           0      3088.698242    186.835846  -61053.01171     76.569321
     808           0      3043.656738    557.780151  -61053.01171     95.290451
     809           0      2954.232178    920.585815  -61053.01171     98.094734
     810           0      2821.729492   1269.964600  -61053.01171     88.782051
     811           0      2648.080078   1600.824463  -61053.01171     74.524292
     812           0      2435.815430   1908.342041  -61053.01171     59.353851
     813           0      2188.029053   2188.034180  -61053.01171     45.259468
     814           0      1908.335693   2435.820313  -61053.01171     33.917385
     815           0      1600.816895   2648.084473  -61053.01171     27.367891
     816           0      1269.957031   2821.732910  -61053.01171     26.300142
     817           0       920.579102   2954.234375  -61053.01171     28.368690
     818           0       557.775513   3043.657959  -61053.01171     30.824575
     819           0       186.834335   3088.698242  -61053.01171     32.345661
     820           0      3088.698242    186.835831  -60677.10937     70.041252
     821           0      3043.656738    557.780090  -60677.10937     90.889763
     822           0      2954.232178    920.585693  -60677.10937     97.867142
     823           0      2821.729492   1269.964478  -60677.10937     91.017143
     824           0      2648.080078   1600.824463  -60677.10937     77.547966
     825           0      2435.815430   1908.342041  -60677.10937     62.307400
     826           0      2188.029053   2188.034180  -60677.10937     48.183006
     827           0      1908.335693   2435.820313  -60677.10937     37.484879
     828           0      1600.816895   2648.084473  -60677.10937     31.959290
     829           0      1269.957031   2821.732910  -60677.10937     31.216221
     830           0       920.579041   2954.234375  -60677.10937     32.773952
     831           0       557.775513   3043.657959  -60677.10937     34.522118
     832           0       186.834335   3088.698242  -60677.10937     35.515823
     833           0      3088.698242    186.835815  -60301.20312     65.711304
     834           0      3043.656738    557.780029  -60301.20312     86.744339
     835           0      2954.232178    920.585632  -60301.20312     97.697998
     836           0      2821.729492   1269.964355  -60301.20312     93.356071
     837           0      2648.080078   1600.824341  -60301.20312     80.835571
     838           0      2435.815430   1908.342041  -60301.20312     65.753700
     839           0      2188.029053   2188.034180  -60301.20312     51.827709
     840           0      1908.335693   2435.820313  -60301.20312     41.790611
     841           0      1600.816895   2648.084473  -60301.20312     36.972946
     842           0      1269.957031   2821.732910  -60301.20312     36.243969
     843           0       920.579041   2954.234375  -60301.20312     37.218365
     844           0       557.775391   3043.657959  -60301.20312     38.274025
     845           0       186.834259   3088.698242  -60301.20312     38.762398
     846           0      3088.698242    186.835785  -59925.29687     63.940605
     847           0      3043.656738    557.780029  -59925.29687     82.953331
     848           0      2954.232178    920.585632  -59925.29687     97.550758
     849           0      2821.729492   1269.964355  -59925.29687     95.796341
     850           0      2648.080078   1600.824341  -59925.29687     84.366837
     851           0      2435.815430   1908.342041  -59925.29687     69.638046
     852           0      2188.029053   2188.034180  -59925.29687     56.059509
     853           0      1908.335693   2435.820313  -59925.29687     46.640003
     854           0      1600.816895   2648.084473  -59925.29687     42.264847
     855           0      1269.956909   2821.732910  -59925.29687     41.353157
     856           0       920.578979   2954.234375  -59925.29687     41.700794
     857           0       557.775269   3043.657959  -59925.29687     42.080383
     858           0       186.834198   3088.698242  -59925.29687     42.082882
     859           0      3088.698242    186.835785  -59549.39843     64.876732
     860           0      3043.656738    557.780029  -59549.39843     79.580719
     861           0      2954.232422    920.585571  -59549.39843     97.423012
     862           0      2821.729736   1269.964355  -59549.39843     98.313850
     863           0      2648.080078   1600.824219  -59549.39843     88.124298
     864           0      2435.815674   1908.341919  -59549.39843     73.899765
     865           0      2188.029053   2188.034180  -59549.39843     60.767380
     866           0      1908.335693   2435.820313  -59549.39843     51.883072
     867           0      1600.816895   2648.084473  -59549.39843     47.749672
     868           0      1269.956787   2821.732910  -59549.39843     46.524059
     869           0       920.578857   2954.234375  -59549.39843     46.221767
     870           0       557.775208   3043.657959  -59549.39843     45.941086
     871           0       186.834198   3088.698242  -59549.39843     45.476440
     872           0      3088.698242    186.835754  -59173.49609     68.233131
     873           0      3043.656738    557.779907  -59173.49609     76.730927
     874           0      2954.232422    920.585449  -59173.49609     97.291672
     875           0      2821.729736   1269.964233  -59173.49609    100.887482
     876           0      2648.080078   1600.824219  -59173.49609     92.081169
     877           0      2435.815674   1908.341675  -59173.49609     78.493439
     878           0      2188.029297   2188.034180  -59173.49609     65.852226
     879           0      1908.335693   2435.820313  -59173.49609     57.417404
     880           0      1600.816895   2648.084473  -59173.49609     53.370552
     881           0      1269.956787   2821.732910  -59173.49609     51.745914
     882           0       920.578857   2954.234375  -59173.49609     50.780849
     883           0       557.775208   3043.657959  -59173.49609     49.857014
     884           0       186.834198   3088.698242  -59173.49609     48.942726
     885           0      3088.698242    186.835724  -58797.58984     73.513962
     886           0      3043.656738    557.779846  -58797.58984     74.465508
     887           0      2954.232422    920.585449  -58797.58984     97.152458
     888           0      2821.729736   1269.964111  -58797.58984    103.492538
     889           0      2648.080078   1600.824219  -58797.58984     96.217041
     890           0      2435.815918   1908.341675  -58797.58984     83.366905
     891           0      2188.029297   2188.034180  -58797.58984     71.240074
     892           0      1908.335815   2435.820313  -58797.58984     63.166824
     893           0      1600.816895   2648.084473  -58797.58984     59.092358
     894           0      1269.956787   2821.732910  -58797.58984     57.009926
     895           0       920.578857   2954.234375  -58797.58984     55.378586
     896           0       557.775208   3043.657959  -58797.58984     53.828888
     897           0       186.834198   3088.698242  -58797.58984     52.482040
     898           0      3088.698242    186.835693  -58421.68750     80.133919
     899           0      3043.656738    557.779785  -58421.68750     72.851990
     900           0      2954.232422    920.585327  -58421.68750     96.995544
     901           0      2821.729736   1269.964111  -58421.68750    106.110146
     902           0      2648.080078   1600.823975  -58421.68750    100.497147
     903           0      2435.815918   1908.341675  -58421.68750     88.481949
     904           0      2188.029297   2188.034180  -58421.68750     76.869225
     905           0      1908.335815   2435.820313  -58421.68750     69.079117
     906           0      1600.816895   2648.084473  -58421.68750     64.889267
     907           0      1269.956787   2821.732910  -58421.68750     62.310875
     908           0       920.578796   2954.234375  -58421.68750     60.014950
     909           0       557.775208   3043.657959  -58421.68750     57.857983
     910           0       186.834198   3088.698242  -58421.68750     56.095230
     911           0      3088.698242    186.835693  -58045.78125     87.598923
     912           0      3043.656738    557.779724  -58045.78125     71.911835
     913           0      2954.232422    920.585327  -58045.78125     96.822083
     914           0      2821.729736   1269.963989  -58045.78125    108.715729
     915           0      2648.080078   1600.823975  -58045.78125    104.898361
     916           0      2435.815918   1908.341675  -58045.78125     93.795540
     917           0      2188.029297   2188.034180  -58045.78125     82.691994
     918           0      1908.335815   2435.820313  -58045.78125     75.114403
     919           0      1600.816895   2648.084473  -58045.78125     70.744110
     920           0      1269.956787   2821.732910  -58045.78125     67.643936
     921           0       920.578735   2954.234375  -58045.78125     64.690437
     922           0       557.775208   3043.657959  -58045.78125     61.945473
     923           0       186.834198   3088.698242  -58045.78125     59.783344
     924           0      3088.698242    186.835663  -57669.87890     95.514053
     925           0      3043.656738    557.779724  -57669.87890     71.648163
     926           0      2954.232422    920.585144  -57669.87890     96.628647
     927           0      2821.729736   1269.963989  -57669.87890    111.293411
     928           0      2648.080322   1600.823975  -57669.87890    109.386154
     929           0      2435.815918   1908.341675  -57669.87890     99.271904
     930           0      2188.029297   2188.034180  -57669.87890     88.667870
     931           0      1908.335815   2435.820313  -57669.87890     81.244720
     932           0      1600.816895   2648.084473  -57669.87890     76.642975
     933           0      1269.956787   2821.732910  -57669.87890     73.006096
     934           0       920.578735   2954.234375  -57669.87890     69.405205
     935           0       557.775208   3043.657959  -57669.87890     66.092834
     936           0       186.834198   3088.698242  -57669.87890     63.547855
     937           0      3088.698242    186.835663  -57293.97656    103.598450
     938           0      3043.656738    557.779663  -57293.97656     72.018791
     939           0      2954.232422    920.585144  -57293.97656     96.420769
     940           0      2821.729736   1269.963867  -57293.97656    113.824226
     941           0      2648.080322   1600.823975  -57293.97656    113.934669
     942           0      2435.815918   1908.341553  -57293.97656    104.876175
     943           0      2188.029297   2188.034180  -57293.97656     94.764526
     944           0      1908.335693   2435.820313  -57293.97656     87.446640
     945           0      1600.816772   2648.084473  -57293.97656     82.576309
     946           0      1269.956787   2821.732910  -57293.97656     78.394104
     947           0       920.578735   2954.234375  -57293.97656     74.159744
     948           0       557.775146   3043.657959  -57293.97656     70.301514
     949           0       186.834137   3088.698242  -57293.97656     67.390404
     950           0      3088.698242    186.835632  -56918.07421    111.647163
     951           0      3043.656738    557.779541  -56918.07421     72.960464
     952           0      2954.232422    920.585083  -56918.07421     96.198357
     953           0      2821.729736   1269.963867  -56918.07421    116.298294
     954           0      2648.080566   1600.823853  -56918.07421    118.513588
     955           0      2435.815918   1908.341553  -56918.07421    110.576111
     956           0      2188.029297   2188.034180  -56918.07421    100.953522
     957           0      1908.335693   2435.820313  -56918.07421     93.702637
     958           0      1600.816650   2648.084473  -56918.07421     88.535500
     959           0      1269.956787   2821.732910  -56918.07421     83.806137
     960           0       920.578735   2954.234375  -56918.07421     78.954460
     961           0       557.775085   3043.657959  -56918.07421     74.573067
     962           0       186.834061   3088.698242  -56918.07421     71.312630
     963           0      3088.698242    186.835602  -56542.16796    119.517708
     964           0      3043.656738    557.779480  -56542.16796     74.384537
     965           0      2954.232422    920.584961  -56542.16796     95.968079
     966           0      2821.729736   1269.963867  -56542.16796    118.702904
     967           0      2648.080566   1600.823730  -56542.16796    123.101135
     968           0      2435.815918   1908.341431  -56542.16796    116.342415
     969           0      2188.029297   2188.034180  -56542.16796    107.209656
     970           0      1908.335693   2435.820313  -56542.16796     99.997055
     971           0      1600.816650   2648.084473  -56542.16796     94.514221
     972           0      1269.956787   2821.732910  -56542.16796     89.239693
     973           0       920.578735   2954.234375  -56542.16796     83.789726
     974           0       557.775085   3043.657959  -56542.16796     78.909279
     975           0       186.834061   3088.698242  -56542.16796     75.316559
     976           0      3088.698242    186.835602  -56166.26562    127.107185
     977           0      3043.656982    557.779480  -56166.26562     76.192307
     978           0      2954.232422    920.584961  -56166.26562     95.734581
     979           0      2821.729736   1269.963745  -56166.26562    121.035995
     980           0      2648.080566   1600.823730  -56166.26562    127.673813
     981           0      2435.815918   1908.341309  -56166.26562    122.146553
     982           0      2188.029297   2188.033936  -56166.26562    113.509933
     983           0      1908.335693   2435.820313  -56166.26562    106.316895
     984           0      1600.816650   2648.084473  -56166.26562    100.506325
     985           0      1269.956787   2821.732910  -56166.26562     94.693848
     986           0       920.578674   2954.234375  -56166.26562     88.666565
     987           0       557.775024   3043.657959  -56166.26562     83.311691
     988           0       186.834061   3088.698242  -56166.26562     79.403763
     989           0      3088.698242    186.835571  -55790.35937    134.346466
     990           0      3043.656982    557.779419  -55790.35937     78.282066
     991           0      2954.232422    920.584900  -55790.35937     95.503654
     992           0      2821.729736   1269.963623  -55790.35937    123.293991
     993           0      2648.080566   1600.823730  -55790.35937    132.210953
     994           0      2435.815918   1908.341309  -55790.35937    127.963570
     995           0      2188.029297   2188.033936  -55790.35937    119.833870
     996           0      1908.335693   2435.820313  -55790.35937    112.649635
     997           0      1600.816650   2648.084473  -55790.35937    106.506622
     998           0      1269.956665   2821.732910  -55790.35937    100.166862
     999           0       920.578552   2954.234375  -55790.35937     93.585144
    1000           0       557.774963   3043.657959  -55790.35937     87.781776
    1001           0       186.834061   3088.698242  -55790.35937     83.576645
    1002           0      3088.698242    186.835556  -55414.45312    141.182953
    1003           0      3043.657227    557.779419  -55414.45312     80.559906
    1004           0      2954.232910    920.584839  -55414.45312     95.283676
    1005           0      2821.729980   1269.963623  -55414.45312    125.477676
    1006           0      2648.080566   1600.823608  -55414.45312    136.698517
    1007           0      2435.815918   1908.341309  -55414.45312    133.768982
    1008           0      2188.029297   2188.033936  -55414.45312    126.161522
    1009           0      1908.335693   2435.820313  -55414.45312    118.984558
    1010           0      1600.816650   2648.084473  -55414.45312    112.510063
    1011           0      1269.956543   2821.732910  -55414.45312    105.657211
    1012           0       920.578491   2954.234863  -55414.45312     98.546700
    1013           0       557.774963   3043.657959  -55414.45312     92.321648
    1014           0       186.834061   3088.698242  -55414.45312     87.836739
    1015           0      3088.698242    186.835526  -55038.55468    147.583252
    1016           0      3043.657227    557.779297  -55038.55468     82.933578
    1017           0      2954.232910    920.584839  -55038.55468     95.083183
    1018           0      2821.729980   1269.963501  -55038.55468    127.591576
    1019           0      2648.080566   1600.823486  -55038.55468    141.121613
    1020           0      2435.816162   1908.341309  -55038.55468    139.543091
    1021           0      2188.029541   2188.033691  -55038.55468    132.475769
    1022           0      1908.335693   2435.820313  -55038.55468    125.309883
    1023           0      1600.816650   2648.084473  -55038.55468    118.512329
    1024           0      1269.956543   2821.732910  -55038.55468    111.164467
    1025           0       920.578491   2954.234863  -55038.55468    103.552040
    1026           0       557.774963   3043.657959  -55038.55468     96.933250
    1027           0       186.834061   3088.698242  -55038.55468     92.186287
    1028           0      3088.698242    186.835510  -54662.65234    153.523911
    1029           0      3043.657227    557.779236  -54662.65234     85.328239
    1030           0      2954.232910    920.584656  -54662.65234     94.908241
    1031           0      2821.729980   1269.963501  -54662.65234    129.644043
    1032           0      2648.080566   1600.823486  -54662.65234    145.471130
    1033           0      2435.816162   1908.341309  -54662.65234    145.265152
    1034           0      2188.029541   2188.033691  -54662.65234    138.758194
    1035           0      1908.335693   2435.820313  -54662.65234    131.616455
    1036           0      1600.816650   2648.084473  -54662.65234    124.508438
    1037           0      1269.956543   2821.732910  -54662.65234    116.686897
    1038           0       920.578491   2954.234863  -54662.65234    108.601891
    1039           0       557.774963   3043.657959  -54662.65234    101.618263
    1040           0       186.834061   3088.698242  -54662.65234     96.626472
    1041           0      3088.698242    186.835480  -54286.74609    158.989044
    1042           0      3043.657227    557.779236  -54286.74609     87.679573
    1043           0      2954.232910    920.584595  -54286.74609     94.769081
    1044           0      2821.729980   1269.963379  -54286.74609    131.643417
    1045           0      2648.080566   1600.823486  -54286.74609    149.738968
    1046           0      2435.816162   1908.341309  -54286.74609    150.921631
    1047           0      2188.029541   2188.033691  -54286.74609    144.996552
    1048           0      1908.335693   2435.820313  -54286.74609    137.893158
    1049           0      1600.816650   2648.084473  -54286.74609    130.493439
    1050           0      1269.956543   2821.732910  -54286.74609    122.224396
    1051           0       920.578491   2954.234863  -54286.74609    113.697968
    1052           0       557.774963   3043.657959  -54286.74609    106.378632
    1053           0       186.834061   3088.698242  -54286.74609    101.159828
    1054           0      3088.698242    186.835480  -53910.84375    163.973465
    1055           0      3043.657227    557.779175  -53910.84375     89.932091
    1056           0      2954.232910    920.584534  -53910.84375     94.674919
    1057           0      2821.729980   1269.963379  -53910.84375    133.603012
    1058           0      2648.080566   1600.823364  -53910.84375    153.921814
    1059           0      2435.816162   1908.341309  -53910.84375    156.497284
    1060           0      2188.029541   2188.033691  -53910.84375    151.171860
    1061           0      1908.335693   2435.820313  -53910.84375    144.130951
    1062           0      1600.816650   2648.084473  -53910.84375    136.463882
    1063           0      1269.956543   2821.732910  -53910.84375    127.776237
    1064           0       920.578491   2954.234863  -53910.84375    118.841827
    1065           0       557.774902   3043.657959  -53910.84375    111.216545
    1066           0       186.833984   3088.698242  -53910.84375    105.788834
    1067           0      3088.698242    186.835449  -53534.93750    168.470505
    1068           0      3043.657227    557.779114  -53534.93750     92.043968
    1069           0      2954.232910    920.584473  -53534.93750     94.639015
    1070           0      2821.729980   1269.963379  -53534.93750    135.534668
    1071           0      2648.080566   1600.823364  -53534.93750    158.013779
    1072           0      2435.816162   1908.341064  -53534.93750    161.974991
    1073           0      2188.029541   2188.033691  -53534.93750    157.275620
    1074           0      1908.335693   2435.820313  -53534.93750    150.321045
    1075           0      1600.816650   2648.084473  -53534.93750    142.413895
    1076           0      1269.956543   2821.732910  -53534.93750    133.341370
    1077           0       920.578491   2954.234863  -53534.93750    124.034386
    1078           0       557.774780   3043.657959  -53534.93750    116.133057
    1079           0       186.833908   3088.698242  -53534.93750    110.513741
    1080           0      3088.698242    186.835434  -53159.03906    172.480408
    1081           0      3043.657227    557.779053  -53159.03906     93.981377
    1082           0      2954.232910    920.584412  -53159.03906     94.674057
    1083           0      2821.729980   1269.963135  -53159.03906    137.453384
    1084           0      2648.080566   1600.823242  -53159.03906    162.016876
    1085           0      2435.816406   1908.340942  -53159.03906    167.353851
    1086           0      2188.029541   2188.033691  -53159.03906    163.295425
    1087           0      1908.335693   2435.820313  -53159.03906    156.452866
    1088           0      1600.816650   2648.084473  -53159.03906    148.338486
    1089           0      1269.956543   2821.732910  -53159.03906    138.917847
    1090           0       920.578430   2954.234863  -53159.03906    129.276428
    1091           0       557.774780   3043.657959  -53159.03906    121.130135
    1092           0       186.833908   3088.698242  -53159.03906    115.334801
    1093           0      3088.698242    186.835419  -52783.13281    176.008438
    1094           0      3043.657227    557.779053  -52783.13281     95.719826
    1095           0      2954.232910    920.584351  -52783.13281     94.793083
    1096           0      2821.729980   1269.963135  -52783.13281    139.377716
    1097           0      2648.080811   1600.823242  -52783.13281    165.938507
    1098           0      2435.816406   1908.340942  -52783.13281    172.618744
    1099           0      2188.029541   2188.033691  -52783.13281    169.216019
    1100           0      1908.335693   2435.820313  -52783.13281    162.519455
    1101           0      1600.816650   2648.084473  -52783.13281    154.233856
    1102           0      1269.956543   2821.732910  -52783.13281    144.505844
    1103           0       920.578308   2954.234863  -52783.13281    134.570023
    1104           0       557.774719   3043.657959  -52783.13281    126.209015
    1105           0       186.833908   3088.698242  -52783.13281    120.254135
    1106           0      3088.698242    186.835388  -52407.23046    179.058640
    1107           0      3043.657227    557.778931  -52407.23046     97.243683
    1108           0      2954.232910    920.584351  -52407.23046     95.017097
    1109           0      2821.729980   1269.963135  -52407.23046    141.320251
    1110           0      2648.080811   1600.823242  -52407.23046    169.773499
    1111           0      2435.816406   1908.340942  -52407.23046    177.762680
    1112           0      2188.029541   2188.033691  -52407.23046    175.031998
    1113           0      1908.335693   2435.820313  -52407.23046    168.513260
    1114           0      1600.816650   2648.084473  -52407.23046    160.096191
    1115           0      1269.956543   2821.732910  -52407.23046    150.104462
    1116           0       920.578247   2954.234863  -52407.23046    139.916275
    1117           0       557.774658   3043.657959  -52407.23046    131.372253
    1118           0       186.833908   3088.698242  -52407.23046    125.273438
    1119           0      3088.698242    186.835388  -52031.32812    181.639404
    1120           0      3043.657227    557.778931  -52031.32812     98.543060
    1121           0      2954.232910    920.584229  -52031.32812     95.365356
    1122           0      2821.729980   1269.963013  -52031.32812    143.298203
    1123           0      2648.080811   1600.822998  -52031.32812    173.530807
    1124           0      2435.816406   1908.340942  -52031.32812    182.788055
    1125           0      2188.029541   2188.033691  -52031.32812    180.734848
    1126           0      1908.335693   2435.820313  -52031.32812    174.427261
    1127           0      1600.816650   2648.084473  -52031.32812    165.921143
    1128           0      1269.956543   2821.732910  -52031.32812    155.713654
    1129           0       920.578247   2954.234863  -52031.32812    145.317276
    1130           0       557.774658   3043.657959  -52031.32812    136.620758
    1131           0       186.833908   3088.698242  -52031.32812    130.393127
    1132           0      3088.698242    186.835358  -51655.42187    183.759079
    1133           0      3043.657227    557.778870  -51655.42187     99.618156
    1134           0      2954.232910    920.584167  -51655.42187     95.856728
    1135           0      2821.729980   1269.963013  -51655.42187    145.334061
    1136           0      2648.080811   1600.822998  -51655.42187    177.217758
    1137           0      2435.816406   1908.340942  -51655.42187    187.686920
    1138           0      2188.029541   2188.033691  -51655.42187    186.319748
    1139           0      1908.335693   2435.820313  -51655.42187    180.255127
    1140           0      1600.816650   2648.084473  -51655.42187    171.705734
    1141           0      1269.956543   2821.732910  -51655.42187    161.331970
    1142           0       920.578247   2954.234863  -51655.42187    150.773209
    1143           0       557.774658   3043.657959  -51655.42187    141.956406
    1144           0       186.833908   3088.698242  -51655.42187    135.614273
    1145           0      3088.698242    186.835327  -51279.51562    185.427887
    1146           0      3043.657227    557.778809  -51279.51562    100.474228
    1147           0      2954.232910    920.584045  -51279.51562     96.517159
    1148           0      2821.729980   1269.962891  -51279.51562    147.441528
    1149           0      2648.080811   1600.822998  -51279.51562    180.838821
    1150           0      2435.816406   1908.340942  -51279.51562    192.457611
    1151           0      2188.029785   2188.033691  -51279.51562    191.779449
    1152           0      1908.335815   2435.820313  -51279.51562    185.992889
    1153           0      1600.816650   2648.084473  -51279.51562    177.445953
    1154           0      1269.956543   2821.732910  -51279.51562    166.960892
    1155           0       920.578247   2954.234863  -51279.51562    156.287231
    1156           0       557.774658   3043.657959  -51279.51562    147.379883
    1157           0       186.833908   3088.698242  -51279.51562    140.937210
    1158           0      3088.698242    186.835297  -50903.61718    186.657928
    1159           0      3043.657227    557.778748  -50903.61718    101.123505
    1160           0      2954.232910    920.583984  -50903.61718     97.372932
    1161           0      2821.730225   1269.962891  -50903.61718    149.640076
    1162           0      2648.081055   1600.822998  -50903.61718    184.403229
    1163           0      2435.816406   1908.340820  -50903.61718    197.102600
    1164           0      2188.029785   2188.033447  -50903.61718    197.110123
    1165           0      1908.335938   2435.820068  -50903.61718    191.635178
    1166           0      1600.816650   2648.084473  -50903.61718    183.140228
    1167           0      1269.956543   2821.732910  -50903.61718    172.597122
    1168           0       920.578247   2954.234863  -50903.61718    161.857468
    1169           0       557.774597   3043.657959  -50903.61718    152.892700
    1170           0       186.833832   3088.698242  -50903.61718    146.363083
    1171           0      3088.698242    186.835297  -50527.71093    187.462479
    1172           0      3043.657227    557.778687  -50527.71093    101.585670
    1173           0      2954.232910    920.583923  -50527.71093     98.451958
    1174           0      2821.730225   1269.962769  -50527.71093    151.945282
    1175           0      2648.081055   1600.822998  -50527.71093    187.916656
    1176           0      2435.816406   1908.340820  -50527.71093    201.619629
    1177           0      2188.029785   2188.033447  -50527.71093    202.310165
    1178           0      1908.335938   2435.820068  -50527.71093    197.178894
    1179           0      1600.816650   2648.084473  -50527.71093    188.787033
    1180           0      1269.956421   2821.733154  -50527.71093    178.242523
    1181           0       920.578186   2954.234863  -50527.71093    167.488235
    1182           0       557.774536   3043.657959  -50527.71093    158.496918
    1183           0       186.833771   3088.698242  -50527.71093    151.891159
    1184           0      3088.698242    186.835266  -50151.80859    187.855148
    1185           0      3043.657227    557.778687  -50151.80859    101.887802
    1186           0      2954.232910    920.583862  -50151.80859     99.781425
    1187           0      2821.730225   1269.962646  -50151.80859    154.370163
    1188           0      2648.081055   1600.822754  -50151.80859    191.388565
    1189           0      2435.816406   1908.340576  -50151.80859    206.015152
    1190           0      2188.029785   2188.033447  -50151.80859    207.377640
    1191           0      1908.335938   2435.820068  -50151.80859    202.620575
    1192           0      1600.816650   2648.084473  -50151.80859    194.384644
    1193           0      1269.956299   2821.733154  -50151.80859    183.898743
    1194           0       920.578125   2954.234863  -50151.80859    173.178238
    1195           0       557.774536   3043.657959  -50151.80859    164.191772
    1196           0       186.833771   3088.698242  -50151.80859    157.522018
    1197           0      3088.698242    186.835266  -49775.90234    187.853485
    1198           0      3043.657227    557.778564  -49775.90234    102.061905
    1199           0      2954.232910    920.583862  -49775.90234    101.390450
    1200           0      2821.730225   1269.962524  -49775.90234    156.936478
    1201           0      2648.081055   1600.822632  -49775.90234    194.828705
    1202           0      2435.816406   1908.340576  -49775.90234    210.288300
    1203           0      2188.029785   2188.033447  -49775.90234    212.311066
    1204           0      1908.335938   2435.820068  -49775.90234    207.960648
    1205           0      1600.816650   2648.084473  -49775.90234    199.930313
    1206           0      1269.956299   2821.733154  -49775.90234    189.563293
    1207           0       920.578125   2954.234863  -49775.90234    178.928940
    1208           0       557.774536   3043.657959  -49775.90234    169.976898
    1209           0       186.833771   3088.698242  -49775.90234    163.255920
    1210           0      3088.698242    186.835236  -49400.00000    187.476135
    1211           0      3043.657227    557.778564  -49400.00000    102.150322
    1212           0      2954.232910    920.583740  -49400.00000    103.307510
    1213           0      2821.730225   1269.962524  -49400.00000    159.649979
    1214           0      2648.081055   1600.822632  -49400.00000    198.239441
    1215           0      2435.816406   1908.340576  -49400.00000    214.447876
    1216           0      2188.029785   2188.033447  -49400.00000    217.113968
    1217           0      1908.335938   2435.820068  -49400.00000    213.195465
    1218           0      1600.816650   2648.084473  -49400.00000    205.425674
    1219           0      1269.956299   2821.733154  -49400.00000    195.239807
    1220           0       920.578064   2954.234863  -49400.00000    184.742935
    1221           0       557.774475   3043.657959  -49400.00000    175.853119
    1222           0       186.833771   3088.698242  -49400.00000    169.091995
    1223           0      3088.698242    186.835220  -49024.09765    186.741943
    1224           0      3043.657227    557.778564  -49024.09765    102.205109
    1225           0      2954.232910    920.583740  -49024.09765    105.558426
    1226           0      2821.730225   1269.962524  -49024.09765    162.527390
    1227           0      2648.081055   1600.822632  -49024.09765    201.637817
    1228           0      2435.816406   1908.340576  -49024.09765    218.492691
    1229           0      2188.029785   2188.033447  -49024.09765    221.782410
    1230           0      1908.335938   2435.820068  -49024.09765    218.328339
    1231           0      1600.816650   2648.084717  -49024.09765    210.871216
    1232           0      1269.956299   2821.733398  -49024.09765    200.926529
    1233           0       920.578003   2954.234863  -49024.09765    190.617615
    1234           0       557.774353   3043.657959  -49024.09765    181.821152
    1235           0       186.833771   3088.698242  -49024.09765    175.030411
    1236           0      3088.698242    186.835205  -48648.19140    185.675980
    1237           0      3043.657227    557.778503  -48648.19140    102.282135
    1238           0      2954.232910    920.583679  -48648.19140    108.171875
    1239           0      2821.730225   1269.962402  -48648.19140    165.580215
    1240           0      2648.081055   1600.822510  -48648.19140    205.025848
    1241           0      2435.816650   1908.340576  -48648.19140    222.431778
    1242           0      2188.029785   2188.033447  -48648.19140    226.325729
    1243           0      1908.335938   2435.820068  -48648.19140    223.359207
    1244           0      1600.816650   2648.084717  -48648.19140    216.267639
    1245           0      1269.956299   2821.733398  -48648.19140    206.625900
    1246           0       920.578003   2954.234863  -48648.19140    196.555145
    1247           0       557.774353   3043.657959  -48648.19140    187.879929
    1248           0       186.833771   3088.698242  -48648.19140    181.070511
    1249           0      3088.698242    186.835175  -48272.28906    184.305328
    1250           0      3043.657227    557.778442  -48272.28906    102.450119
    1251           0      2954.232910    920.583618  -48272.28906    111.165443
    1252           0      2821.730469   1269.962402  -48272.28906    168.811218
    1253           0      2648.081055   1600.822510  -48272.28906    208.412415
    1254           0      2435.816650   1908.340576  -48272.28906    226.270981
    1255           0      2188.029785   2188.033447  -48272.28906    230.744202
    1256           0      1908.335938   2435.820068  -48272.28906    228.290970
    1257           0      1600.816650   2648.084717  -48272.28906    221.616257
    1258           0      1269.956177   2821.733398  -48272.28906    212.338196
    1259           0       920.577881   2954.234863  -48272.28906    202.554306
    1260           0       557.774353   3043.657959  -48272.28906    194.029053
    1261           0       186.833771   3088.698242  -48272.28906    187.212265
    1262           0      3088.698242    186.835175  -47896.38671    182.660187
    1263           0      3043.657227    557.778381  -47896.38671    102.785515
    1264           0      2954.232910    920.583496  -47896.38671    114.558044
    1265           0      2821.730469   1269.962402  -47896.38671    172.235062
    1266           0      2648.081299   1600.822388  -47896.38671    211.804718
    1267           0      2435.816895   1908.340576  -47896.38671    230.011810
    1268           0      2188.029785   2188.033447  -47896.38671    235.037552
    1269           0      1908.335938   2435.820068  -47896.38671    233.122742
    1270           0      1600.816650   2648.084717  -47896.38671    226.920441
    1271           0      1269.956055   2821.733398  -47896.38671    218.065262
    1272           0       920.577759   2954.234863  -47896.38671    208.615646
    1273           0       557.774292   3043.657959  -47896.38671    200.267563
    1274           0       186.833694   3088.698242  -47896.38671    193.454819
    1275           0      3088.698242    186.835144  -47520.48437    180.777863
    1276           0      3043.657227    557.778259  -47520.48437    103.369652
    1277           0      2954.232910    920.583435  -47520.48437    118.364792
    1278           0      2821.730469   1269.962158  -47520.48437    175.852448
    1279           0      2648.081299   1600.822266  -47520.48437    215.205795
    1280           0      2435.816895   1908.340576  -47520.48437    233.669601
    1281           0      2188.030029   2188.033447  -47520.48437    239.219940
    1282           0      1908.335938   2435.820068  -47520.48437    237.863800
    1283           0      1600.816650   2648.084717  -47520.48437    232.182724
    1284           0      1269.956055   2821.733398  -47520.48437    223.807541
    1285           0       920.577759   2954.234863  -47520.48437    214.738327
    1286           0       557.774170   3043.657959  -47520.48437    206.594437
    1287           0       186.833618   3088.698242  -47520.48437    199.796494
    1288           0      3088.698242    186.835114  -47144.57812    178.701752
    1289           0      3043.657227    557.778259  -47144.57812    104.289825
    1290           0      2954.232910    920.583374  -47144.57812    122.595985
    1291           0      2821.730469   1269.962158  -47144.57812    179.669449
    1292           0      2648.081299   1600.822266  -47144.57812    218.624420
    1293           0      2435.816895   1908.340332  -47144.57812    237.244659
    1294           0      2188.030029   2188.033203  -47144.57812    243.293427
    1295           0      1908.336182   2435.820068  -47144.57812    242.515213
    1296           0      1600.816650   2648.084717  -47144.57812    237.405655
    1297           0      1269.956055   2821.733398  -47144.57812    229.566315
    1298           0       920.577759   2954.234863  -47144.57812    220.921829
    1299           0       557.774170   3043.657959  -47144.57812    213.008789
    1300           0       186.833618   3088.698242  -47144.57812    206.237045
    1301           0      3088.698242    186.835083  -46768.67187    176.482101
    1302           0      3043.657227    557.778198  -46768.67187    105.635735
    1303           0      2954.232910    920.583374  -46768.67187    127.256889
    1304           0      2821.730469   1269.962036  -46768.67187    183.683105
    1305           0      2648.081299   1600.822266  -46768.67187    222.065811
    1306           0      2435.816895   1908.340332  -46768.67187    240.746170
    1307           0      2188.030029   2188.033203  -46768.67187    247.261536
    1308           0      1908.336182   2435.820068  -46768.67187    247.081726
    1309           0      1600.816650   2648.084717  -46768.67187    242.591995
    1310           0      1269.956055   2821.733398  -46768.67187    235.343445
    1311           0       920.577759   2954.234863  -46768.67187    227.165421
    1312           0       557.774170   3043.657959  -46768.67187    219.508591
    1313           0       186.833618   3088.698242  -46768.67187    212.775543
    1314           0      3088.698242    186.835083  -46392.76953    174.178528
    1315           0      3043.657227    557.778137  -46392.76953    107.492920
    1316           0      2954.232910    920.583252  -46392.76953    132.346710
    1317           0      2821.730469   1269.962036  -46392.76953    187.897934
    1318           0      2648.081299   1600.822144  -46392.76953    225.532928
    1319           0      2435.816895   1908.340210  -46392.76953    244.179092
    1320           0      2188.030029   2188.033203  -46392.76953    251.136841
    1321           0      1908.336182   2435.820068  -46392.76953    251.573898
    1322           0      1600.816650   2648.084717  -46392.76953    247.746521
    1323           0      1269.956055   2821.733398  -46392.76953    241.138138
    1324           0       920.577759   2954.234863  -46392.76953    233.467300
    1325           0       557.774170   3043.657959  -46392.76953    226.093201
    1326           0       186.833618   3088.698242  -46392.76953    219.410461
    1327           0      3088.698242    186.835052  -46016.86718    171.859955
    1328           0      3043.657227    557.778137  -46016.86718    109.945633
    1329           0      2954.232910    920.583252  -46016.86718    137.863159
    1330           0      2821.730469   1269.961914  -46016.86718    192.308472
    1331           0      2648.081299   1600.822144  -46016.86718    229.033615
    1332           0      2435.816895   1908.340210  -46016.86718    247.557083
    1333           0      2188.030029   2188.033203  -46016.86718    254.923233
    1334           0      1908.336182   2435.820068  -46016.86718    255.992203
    1335           0      1600.816650   2648.084717  -46016.86718    252.873764
    1336           0      1269.956055   2821.733398  -46016.86718    246.953522
    1337           0       920.577759   2954.234863  -46016.86718    239.827744
    1338           0       557.774109   3043.657959  -46016.86718    232.760208
    1339           0       186.833618   3088.698242  -46016.86718    226.140411
    1340           0      3088.698242    186.835052  -45640.96484    169.605759
    1341           0      3043.657227    557.778076  -45640.96484    113.065712
    1342           0      2954.232910    920.583191  -45640.96484    143.800827
    1343           0      2821.730469   1269.961914  -45640.96484    196.912201
    1344           0      2648.081543   1600.822021  -45640.96484    232.569412
    1345           0      2435.816895   1908.340210  -45640.96484    250.880646
    1346           0      2188.030029   2188.033203  -45640.96484    258.628662
    1347           0      1908.336182   2435.820068  -45640.96484    260.347931
    1348           0      1600.816650   2648.084717  -45640.96484    257.976105
    1349           0      1269.956055   2821.733398  -45640.96484    252.788849
    1350           0       920.577637   2954.234863  -45640.96484    246.243042
    1351           0       557.774048   3043.657959  -45640.96484    239.507324
    1352           0       186.833618   3088.698242  -45640.96484    232.964722
    1353           0      3088.698242    186.835022  -45265.05859    167.511383
    1354           0      3043.657227    557.778015  -45265.05859    116.910873
    1355           0      2954.232910    920.583069  -45265.05859    150.143112
    1356           0      2821.730469   1269.961914  -45265.05859    201.699570
    1357           0      2648.081543   1600.822021  -45265.05859    236.139282
    1358           0      2435.816895   1908.340210  -45265.05859    254.162643
    1359           0      2188.030029   2188.033203  -45265.05859    262.264221
    1360           0      1908.336182   2435.820068  -45265.05859    264.645966
    1361           0      1600.816650   2648.084717  -45265.05859    263.058685
    1362           0      1269.955933   2821.733398  -45265.05859    258.644043
    1363           0       920.577515   2954.234863  -45265.05859    252.713211
    1364           0       557.774048   3043.657959  -45265.05859    246.333588
    1365           0       186.833618   3088.698242  -45265.05859    239.882034
    1366           0      3088.698242    186.834991  -44889.15625    165.683517
    1367           0      3043.657227    557.777954  -44889.15625    121.524918
    1368           0      2954.233154    920.583008  -44889.15625    156.876663
    1369           0      2821.730713   1269.961792  -44889.15625    206.670227
    1370           0      2648.081543   1600.822021  -44889.15625    239.756760
    1371           0      2435.816895   1908.340210  -44889.15625    257.410675
    1372           0      2188.030029   2188.033203  -44889.15625    265.838196
    1373           0      1908.336182   2435.820068  -44889.15625    268.893524
    1374           0      1600.816650   2648.084717  -44889.15625    268.125946
    1375           0      1269.955933   2821.733398  -44889.15625    264.521362
    1376           0       920.577515   2954.234863  -44889.15625    259.236053
    1377           0       557.773987   3043.658203  -44889.15625    253.237320
    1378           0       186.833557   3088.698486  -44889.15625    246.890396
    1379           0      3088.698242    186.834991  -44513.25000    164.237503
    1380           0      3043.657227    557.777893  -44513.25000    126.937210
    1381           0      2954.233154    920.582947  -44513.25000    163.990799
    1382           0      2821.730713   1269.961670  -44513.25000    211.812408
    1383           0      2648.081543   1600.821777  -44513.25000    243.415359
    1384           0      2435.816895   1908.340088  -44513.25000    260.629211
    1385           0      2188.030273   2188.033203  -44513.25000    269.360382
    1386           0      1908.336182   2435.820068  -44513.25000    273.100037
    1387           0      1600.816650   2648.084717  -44513.25000    273.180359
    1388           0      1269.955933   2821.733398  -44513.25000    270.418152
    1389           0       920.577515   2954.234863  -44513.25000    265.808624
    1390           0       557.773926   3043.658203  -44513.25000    260.216278
    1391           0       186.833481   3088.698730  -44513.25000    253.988586
    1392           0      3088.698242    186.834961  -44137.35156    163.307236
    1393           0      3043.657227    557.777832  -44137.35156    133.154541
    1394           0      2954.233154    920.582886  -44137.35156    171.455276
    1395           0      2821.730713   1269.961670  -44137.35156    217.112854
    1396           0      2648.081543   1600.821777  -44137.35156    247.118042
    1397           0      2435.816895   1908.340088  -44137.35156    263.833221
    1398           0      2188.030273   2188.033203  -44137.35156    272.837189
    1399           0      1908.336182   2435.820068  -44137.35156    277.269653
    1400           0      1600.816650   2648.084717  -44137.35156    278.226349
    1401           0      1269.955933   2821.733398  -44137.35156    276.336456
    1402           0       920.577515   2954.234863  -44137.35156    272.431061
    1403           0       557.773926   3043.658203  -44137.35156    267.268494
    1404           0       186.833481   3088.698730  -44137.35156    261.174683
    1405           0      3088.698242    186.834961  -43761.44531    163.033691
    1406           0      3043.657227    557.777832  -43761.44531    140.171097
    1407           0      2954.233398    920.582825  -43761.44531    179.254349
    1408           0      2821.730713   1269.961670  -43761.44531    222.569626
    1409           0      2648.081543   1600.821777  -43761.44531    250.869644
    1410           0      2435.816895   1908.339844  -43761.44531    267.024963
    1411           0      2188.030273   2188.033203  -43761.44531    276.284576
    1412           0      1908.336182   2435.820068  -43761.44531    281.415497
    1413           0      1600.816650   2648.084717  -43761.44531    283.266571
    1414           0      1269.955933   2821.733398  -43761.44531    282.274933
    1415           0       920.577515   2954.234863  -43761.44531    279.101715
    1416           0       557.773926   3043.658203  -43761.44531    274.392975
    1417           0       186.833481   3088.698730  -43761.44531    268.447906
    1418           0      3088.698242    186.834930  -43385.54296    163.556335
    1419           0      3043.657227    557.777710  -43385.54296    147.967758
    1420           0      2954.233398    920.582764  -43385.54296    187.360275
    1421           0      2821.730957   1269.961548  -43385.54296    228.162613
    1422           0      2648.081543   1600.821655  -43385.54296    254.672379
    1423           0      2435.816895   1908.339844  -43385.54296    270.216003
    1424           0      2188.030273   2188.033203  -43385.54296    279.707733
    1425           0      1908.336182   2435.820068  -43385.54296    285.536011
    1426           0      1600.816650   2648.084717  -43385.54296    288.301392
    1427           0      1269.955933   2821.733398  -43385.54296    288.234528
    1428           0       920.577515   2954.234863  -43385.54296    285.817993
    1429           0       557.773926   3043.658203  -43385.54296    281.586761
    1430           0       186.833481   3088.698730  -43385.54296    275.805725
    1431           0      3088.698242    186.834900  -43009.64062    165.015106
    1432           0      3043.657227    557.777649  -43009.64062    156.512283
    1433           0      2954.233398    920.582703  -43009.64062    195.745880
    1434           0      2821.730957   1269.961426  -43009.64062    233.884201
    1435           0      2648.081787   1600.821655  -43009.64062    258.527710
    1436           0      2435.817139   1908.339844  -43009.64062    273.410706
    1437           0      2188.030273   2188.033203  -43009.64062    283.111603
    1438           0      1908.336182   2435.819824  -43009.64062    289.644653
    1439           0      1600.816650   2648.084717  -43009.64062    293.335175
    1440           0      1269.955933   2821.733398  -43009.64062    294.212646
    1441           0       920.577515   2954.234863  -43009.64062    292.578247
    1442           0       557.773926   3043.658203  -43009.64062    288.847809
    1443           0       186.833481   3088.698730  -43009.64062    283.245026
    1444           0      3088.698242    186.834869  -42633.73437    167.539124
    1445           0      3043.657227    557.777649  -42633.73437    165.766449
    1446           0      2954.233398    920.582581  -42633.73437    204.383835
    1447           0      2821.730957   1269.961426  -42633.73437    239.721024
    1448           0      2648.081787   1600.821655  -42633.73437    262.436127
    1449           0      2435.817139   1908.339844  -42633.73437    276.626770
    1450           0      2188.030273   2188.033203  -42633.73437    286.516632
    1451           0      1908.336182   2435.819824  -42633.73437    293.744232
    1452           0      1600.816650   2648.084717  -42633.73437    298.369659
    1453           0      1269.955811   2821.733398  -42633.73437    300.209839
    1454           0       920.577271   2954.234863  -42633.73437    299.381195
    1455           0       557.773865   3043.658203  -42633.73437    296.174194
    1456           0       186.833481   3088.698730  -42633.73437    290.764557
    1457           0      3088.698242    186.834869  -42257.82812    171.235352
    1458           0      3043.657227    557.777588  -42257.82812    175.682922
    1459           0      2954.233398    920.582581  -42257.82812    213.245041
    1460           0      2821.730957   1269.961426  -42257.82812    245.663223
    1461           0      2648.081787   1600.821533  -42257.82812    266.400940
    1462           0      2435.817383   1908.339844  -42257.82812    279.866547
    1463           0      2188.030273   2188.033203  -42257.82812    289.916870
    1464           0      1908.336182   2435.819824  -42257.82812    297.835388
    1465           0      1600.816650   2648.084717  -42257.82812    303.408539
    1466           0      1269.955811   2821.733398  -42257.82812    306.225861
    1467           0       920.577271   2954.234863  -42257.82812    306.225739
    1468           0       557.773804   3043.658203  -42257.82812    303.564911
    1469           0       186.833481   3088.698730  -42257.82812    298.361847
    1470           0      3088.698242    186.834839  -41881.92968    176.188217
    1471           0      3043.657227    557.777588  -41881.92968    186.210037
    1472           0      2954.233398    920.582520  -41881.92968    222.298615
    1473           0      2821.730957   1269.961426  -41881.92968    251.699051
    1474           0      2648.081787   1600.821533  -41881.92968    270.423767
    1475           0      2435.817383   1908.339722  -41881.92968    283.134735
    1476           0      2188.030273   2188.032959  -41881.92968    293.331451
    1477           0      1908.336182   2435.819824  -41881.92968    301.928833
    1478           0      1600.816650   2648.084717  -41881.92968    308.448700
    1479           0      1269.955811   2821.733398  -41881.92968    312.261139
    1480           0       920.577271   2954.234863  -41881.92968    313.111115
    1481           0       557.773804   3043.658203  -41881.92968    311.018097
    1482           0       186.833481   3088.698730  -41881.92968    306.035583
    1483           0      3088.698242    186.834824  -41506.02734    182.444016
    1484           0      3043.657227    557.777527  -41506.02734    197.291550
    1485           0      2954.233398    920.582397  -41506.02734    231.517303
    1486           0      2821.730957   1269.961182  -41506.02734    257.817963
    1487           0      2648.081787   1600.821533  -41506.02734    274.513428
    1488           0      2435.817383   1908.339722  -41506.02734    286.447845
    1489           0      2188.030273   2188.032959  -41506.02734    296.763184
    1490           0      1908.336182   2435.820068  -41506.02734    306.025665
    1491           0      1600.816650   2648.084717  -41506.02734    313.495911
    1492           0      1269.955811   2821.733398  -41506.02734    318.315369
    1493           0       920.577271   2954.234863  -41506.02734    320.035400
    1494           0       557.773682   3043.658203  -41506.02734    318.531403
    1495           0       186.833405   3088.698730  -41506.02734    313.783081
    1496           0      3088.698242    186.834808  -41130.12109    190.023010
    1497           0      3043.657227    557.777466  -41130.12109    208.866806
    1498           0      2954.233398    920.582397  -41130.12109    240.869843
    1499           0      2821.730957   1269.961182  -41130.12109    264.009766
    1500           0      2648.081787   1600.821289  -41130.12109    278.664124
    1501           0      2435.817383   1908.339600  -41130.12109    289.801422
    1502           0      2188.030273   2188.032959  -41130.12109    300.214752
    1503           0      1908.336060   2435.820068  -41130.12109    310.133057
    1504           0      1600.816406   2648.084961  -41130.12109    318.547943
    1505           0      1269.955811   2821.733398  -41130.12109    324.388672
    1506           0       920.577271   2954.234863  -41130.12109    326.998138
    1507           0       557.773621   3043.658203  -41130.12109    326.103943
    1508           0       186.833328   3088.698730  -41130.12109    321.602325
    1509           0      3088.698242    186.834778  -40754.21875    198.905533
    1510           0      3043.657227    557.777344  -40754.21875    220.874466
    1511           0      2954.233398    920.582275  -40754.21875    250.324295
    1512           0      2821.730957   1269.961182  -40754.21875    270.271454
    1513           0      2648.081787   1600.821289  -40754.21875    282.885071
    1514           0      2435.817383   1908.339600  -40754.21875    293.214264
    1515           0      2188.030273   2188.032959  -40754.21875    303.697601
    1516           0      1908.336060   2435.820068  -40754.21875    314.245880
    1517           0      1600.816406   2648.084961  -40754.21875    323.608704
    1518           0      1269.955811   2821.733398  -40754.21875    330.479919
    1519           0       920.577271   2954.234863  -40754.21875    333.998871
    1520           0       557.773621   3043.658203  -40754.21875    333.732788
    1521           0       186.833328   3088.698730  -40754.21875    329.491760
    1522           0      3088.698242    186.834778  -40378.31250    209.048889
    1523           0      3043.657227    557.777344  -40378.31250    233.251434
    1524           0      2954.233398    920.582275  -40378.31250    259.857574
    1525           0      2821.730957   1269.961060  -40378.31250    276.595520
    1526           0      2648.082031   1600.821289  -40378.31250    287.183685
    1527           0      2435.817383   1908.339600  -40378.31250    296.682251
    1528           0      2188.030273   2188.032959  -40378.31250    307.208862
    1529           0      1908.336060   2435.820068  -40378.31250    318.374054
    1530           0      1600.816406   2648.084961  -40378.31250    328.678345
    1531           0      1269.955811   2821.733398  -40378.31250    336.590637
    1532           0       920.577271   2954.234863  -40378.31250    341.036316
    1533           0       557.773621   3043.658203  -40378.31250    341.416962
    1534           0       186.833328   3088.698730  -40378.31250    337.447510
    1535           0      3088.698242    186.834747  -40002.40625    220.375031
    1536           0      3043.657227    557.777283  -40002.40625    245.933243
    1537           0      2954.233398    920.582153  -40002.40625    269.443268
    1538           0      2821.730957   1269.960938  -40002.40625    282.973541
    1539           0      2648.082031   1600.821167  -40002.40625    291.555237
    1540           0      2435.817383   1908.339478  -40002.40625    300.211212
    1541           0      2188.030273   2188.032959  -40002.40625    310.754486
    1542           0      1908.336060   2435.820068  -40002.40625    322.514618
    1543           0      1600.816406   2648.084961  -40002.40625    333.759308
    1544           0      1269.955688   2821.733398  -40002.40625    342.721436
    1545           0       920.577148   2954.234863  -40002.40625    348.109558
    1546           0       557.773621   3043.658203  -40002.40625    349.154816
    1547           0       186.833328   3088.698730  -40002.40625    345.467987
    1548           0      3088.698242    186.834717  -39626.50781    232.798874
    1549           0      3043.657227    557.777222  -39626.50781    258.854614
    1550           0      2954.233398    920.582092  -39626.50781    279.058838
    1551           0      2821.730957   1269.960938  -39626.50781    289.407379
    1552           0      2648.082031   1600.821167  -39626.50781    296.011017
    1553           0      2435.817383   1908.339478  -39626.50781    303.811218
    1554           0      2188.030273   2188.032715  -39626.50781    314.333679
    1555           0      1908.336182   2435.819824  -39626.50781    326.672791
    1556           0      1600.816406   2648.084961  -39626.50781    338.850372
    1557           0      1269.955688   2821.733398  -39626.50781    348.871368
    1558           0       920.577148   2954.234863  -39626.50781    355.218658
    1559           0       557.773621   3043.658203  -39626.50781    356.943726
    1560           0       186.833328   3088.698730  -39626.50781    353.551208
    1561           0      3088.698242    186.834686  -39250.60156    246.203842
    1562           0      3043.657227    557.777161  -39250.60156    271.953033
    1563           0      2954.233398    920.582031  -39250.60156    288.688263
    1564           0      2821.730957   1269.960938  -39250.60156    295.900330
    1565           0      2648.082031   1600.821045  -39250.60156    300.550842
    1566           0      2435.817383   1908.339355  -39250.60156    307.472992
    1567           0      2188.030518   2188.032715  -39250.60156    317.952515
    1568           0      1908.336182   2435.819824  -39250.60156    330.847839
    1569           0      1600.816406   2648.084961  -39250.60156    343.958374
    1570           0      1269.955688   2821.733398  -39250.60156    355.043610
    1571           0       920.577148   2954.234863  -39250.60156    362.362518
    1572           0       557.773621   3043.658203  -39250.60156    364.783203
    1573           0       186.833328   3088.698730  -39250.60156    361.694031
    1574           0      3088.698242    186.834686  -38874.69921    260.476776
    1575           0      3043.657227    557.777100  -38874.69921    285.170471
    1576           0      2954.233398    920.581909  -38874.69921    298.314972
    1577           0      2821.730957   1269.960693  -38874.69921    302.455078
    1578           0      2648.082031   1600.821045  -38874.69921    305.176361
    1579           0      2435.817383   1908.339355  -38874.69921    311.205261
    1580           0      2188.030518   2188.032715  -38874.69921    321.607819
    1581           0      1908.336182   2435.819824  -38874.69921    335.042816
    1582           0      1600.816406   2648.084961  -38874.69921    349.079529
    1583           0      1269.955566   2821.733398  -38874.69921    361.235901
    1584           0       920.577026   2954.234863  -38874.69921    369.539337
    1585           0       557.773560   3043.658203  -38874.69921    372.671326
    1586           0       186.833328   3088.698730  -38874.69921    369.893768
    1587           0      3088.698242    186.834656  -38498.79687    275.482605
    1588           0      3043.657227    557.777100  -38498.79687    298.450623
    1589           0      2954.233398    920.581909  -38498.79687    307.937836
    1590           0      2821.730957   1269.960693  -38498.79687    309.066406
    1591           0      2648.082031   1600.821045  -38498.79687    309.890961
    1592           0      2435.817383   1908.339355  -38498.79687    314.997955
    1593           0      2188.030762   2188.032715  -38498.79687    325.303955
    1594           0      1908.336182   2435.819824  -38498.79687    339.258789
    1595           0      1600.816406   2648.084961  -38498.79687    354.217163
    1596           0      1269.955566   2821.733398  -38498.79687    367.448792
    1597           0       920.577026   2954.234863  -38498.79687    376.749481
    1598           0       557.773438   3043.658203  -38498.79687    380.606079
    1599           0       186.833252   3088.698730  -38498.79687    378.149689
    1600           0      3088.698242    186.834656  -38122.89062    291.090576
    1601           0      3043.657227    557.777039  -38122.89062    311.748566
    1602           0      2954.233398    920.581909  -38122.89062    317.552368
    1603           0      2821.730957   1269.960693  -38122.89062    315.754913
    1604           0      2648.082031   1600.820801  -38122.89062    314.687073
    1605           0      2435.817627   1908.339355  -38122.89062    318.860626
    1606           0      2188.030762   2188.032715  -38122.89062    329.037964
    1607           0      1908.336182   2435.819824  -38122.89062    343.500977
    1608           0      1600.816406   2648.084961  -38122.89062    359.373016
    1609           0      1269.955566   2821.733398  -38122.89062    373.688599
    1610           0       920.577026   2954.234863  -38122.89062    383.995544
    1611           0       557.773315   3043.658203  -38122.89062    388.586151
    1612           0       186.833191   3088.698730  -38122.89062    386.457916
    1613           0      3088.698242    186.834625  -37746.98828    307.172455
    1614           0      3043.657471    557.776978  -37746.98828    325.028076
    1615           0      2954.233398    920.581787  -37746.98828    327.171143
    1616           0      2821.730957   1269.960693  -37746.98828    322.503845
    1617           0      2648.082031   1600.820801  -37746.98828    319.565277
    1618           0      2435.817627   1908.339355  -37746.98828    322.784485
    1619           0      2188.030762   2188.032715  -37746.98828    332.819183
    1620           0      1908.336182   2435.819824  -37746.98828    347.765930
    1621           0      1600.816406   2648.084961  -37746.98828    364.546844
    1622           0      1269.955444   2821.733398  -37746.98828    379.946533
    1623           0       920.576904   2954.234863  -37746.98828    391.274048
    1624           0       557.773315   3043.658203  -37746.98828    396.608124
    1625           0       186.833191   3088.698730  -37746.98828    394.817871
    1626           0      3088.698242    186.834595  -37371.08593    323.580475
    1627           0      3043.657471    557.776978  -37371.08593    338.266235
    1628           0      2954.233643    920.581787  -37371.08593    336.795044
    1629           0      2821.731201   1269.960571  -37371.08593    329.332520
    1630           0      2648.082031   1600.820679  -37371.08593    324.519531
    1631           0      2435.817627   1908.339355  -37371.08593    326.775543
    1632           0      2188.030762   2188.032715  -37371.08593    336.638794
    1633           0      1908.336182   2435.819824  -37371.08593    352.059814
    1634           0      1600.816406   2648.084961  -37371.08593    369.739807
    1635           0      1269.955322   2821.733398  -37371.08593    386.231781
    1636           0       920.576782   2954.235107  -37371.08593    398.583801
    1637           0       557.773315   3043.658203  -37371.08593    404.674103
    1638           0       186.833191   3088.698730  -37371.08593    403.225616
    1639           0      3088.698242    186.834595  -36995.18359    340.232605
    1640           0      3043.657471    557.776855  -36995.18359    351.462555
    1641           0      2954.233643    920.581604  -36995.18359    346.456970
    1642           0      2821.731445   1269.960449  -36995.18359    336.225983
    1643           0      2648.082275   1600.820679  -36995.18359    329.550873
    1644           0      2435.817627   1908.339111  -36995.18359    330.824890
    1645           0      2188.030762   2188.032715  -36995.18359    340.504883
    1646           0      1908.336182   2435.819824  -36995.18359    356.376251
    1647           0      1600.816406   2648.084961  -36995.18359    374.956604
    1648           0      1269.955322   2821.733398  -36995.18359    392.537628
    1649           0       920.576782   2954.235107  -36995.18359    405.926208
    1650           0       557.773315   3043.658203  -36995.18359    412.777252
    1651           0       186.833191   3088.698730  -36995.18359    411.678284
    1652           0      3088.698242    186.834564  -36619.27734    356.984985
    1653           0      3043.657715    557.776855  -36619.27734    364.620422
    1654           0      2954.233643    920.581604  -36619.27734    356.135162
    1655           0      2821.731445   1269.960449  -36619.27734    343.185150
    1656           0      2648.082275   1600.820679  -36619.27734    334.644073
    1657           0      2435.817627   1908.339111  -36619.27734    334.945557
    1658           0      2188.030762   2188.032715  -36619.27734    344.413788
    1659           0      1908.336182   2435.819824  -36619.27734    360.731354
    1660           0      1600.816406   2648.084961  -36619.27734    380.203003
    1661           0      1269.955322   2821.733398  -36619.27734    398.881897
    1662           0       920.576782   2954.235107  -36619.27734    413.308838
    1663           0       557.773315   3043.658203  -36619.27734    420.936157
    1664           0       186.833191   3088.698730  -36619.27734    420.187866
    1665           0      3088.698486    186.834564  -36243.37500    373.773956
    1666           0      3043.657715    557.776794  -36243.37500    377.760559
    1667           0      2954.233643    920.581543  -36243.37500    365.863434
    1668           0      2821.731445   1269.960327  -36243.37500    350.184235
    1669           0      2648.082275   1600.820557  -36243.37500    339.814667
    1670           0      2435.817627   1908.339111  -36243.37500    339.101532
    1671           0      2188.030762   2188.032715  -36243.37500    348.346863
    1672           0      1908.336182   2435.819824  -36243.37500    365.080505
    1673           0      1600.816406   2648.084961  -36243.37500    385.436401
    1674           0      1269.955322   2821.733398  -36243.37500    405.197784
    1675           0       920.576782   2954.235107  -36243.37500    420.669312
    1676           0       557.773315   3043.658203  -36243.37500    429.068146
    1677           0       186.833191   3088.698730  -36243.37500    428.679382
    1678           0      3088.698486    186.834534  -35867.46875    390.822876
    1679           0      3043.657715    557.776672  -35867.46875    391.084808
    1680           0      2954.233643    920.581421  -35867.46875    375.709442
    1681           0      2821.731445   1269.960205  -35867.46875    357.335297
    1682           0      2648.082520   1600.820557  -35867.46875    345.120972
    1683           0      2435.817627   1908.339111  -35867.46875    343.415161
    1684           0      2188.030762   2188.032471  -35867.46875    352.426544
    1685           0      1908.336304   2435.819824  -35867.46875    369.610565
    1686           0      1600.816406   2648.084961  -35867.46875    390.864563
    1687           0      1269.955322   2821.733398  -35867.46875    411.752899
    1688           0       920.576782   2954.235107  -35867.46875    428.288177
    1689           0       557.773315   3043.658203  -35867.46875    437.487793
    1690           0       186.833191   3088.698730  -35867.46875    437.460785
    1691           0      3088.698486    186.834503  -35491.57031    406.944611
    1692           0      3043.657715    557.776672  -35491.57031    403.728912
    1693           0      2954.233643    920.581421  -35491.57031    385.046082
    1694           0      2821.731445   1269.960205  -35491.57031    364.069427
    1695           0      2648.082520   1600.820313  -35491.57031    350.103760
    1696           0      2435.817871   1908.338989  -35491.57031    347.350281
    1697           0      2188.030762   2188.032471  -35491.57031    356.080536
    1698           0      1908.336304   2435.819824  -35491.57031    373.584595
    1699           0      1600.816406   2648.084961  -35491.57031    395.645599
    1700           0      1269.955322   2821.733398  -35491.57031    417.538666
    1701           0       920.576721   2954.235107  -35491.57031    435.074890
    1702           0       557.773193   3043.658203  -35491.57031    445.017181
    1703           0       186.833130   3088.698730  -35491.57031    445.348022
    1704           0      3088.698486    186.834473  -35115.66406    426.697723
    1705           0      3043.657715    557.776611  -35115.66406    419.268433
    1706           0      2954.233643    920.581360  -35115.66406    396.652863
    1707           0      2821.731445   1269.960083  -35115.66406    372.858459
    1708           0      2648.082520   1600.820313  -35115.66406    356.873901
    1709           0      2435.817871   1908.338989  -35115.66406    353.126709
    1710           0      2188.030762   2188.032471  -35115.66406    361.655365
    1711           0      1908.336304   2435.819824  -35115.66406    379.780853
    1712           0      1600.816406   2648.084961  -35115.66406    402.925568
    1713           0      1269.955322   2821.733398  -35115.66406    426.159973
    1714           0       920.576599   2954.235107  -35115.66406    444.929535
    1715           0       557.773071   3043.658203  -35115.66406    455.793549
    1716           0       186.833054   3088.698730  -35115.66406    456.520905
    1717           0      3088.698486    186.834473  -34739.75781    435.960632
    1718           0      3043.657715    557.776611  -34739.75781    425.303192
    1719           0      2954.233643    920.581299  -34739.75781    400.367554
    1720           0      2821.731445   1269.959961  -34739.75781    374.555664
    1721           0      2648.082520   1600.820313  -34739.75781    357.300629
    1722           0      2435.817871   1908.338867  -34739.75781    352.508667
    1723           0      2188.030762   2188.032471  -34739.75781    360.561890
    1724           0      1908.336304   2435.819824  -34739.75781    378.525543
    1725           0      1600.816406   2648.084961  -34739.75781    401.929230
    1726           0      1269.955322   2821.733398  -34739.75781    425.601746
    1727           0       920.576538   2954.235107  -34739.75781    444.915985
    1728           0       557.773071   3043.658203  -34739.75781    456.236084
    1729           0       186.833054   3088.698730  -34739.75781    457.251923
    1730           0      3088.698486    186.834442  -34363.85546    475.375671
    1731           0      3043.657715    557.776550  -34363.85546    459.491302
    1732           0      2954.233643    920.581238  -34363.85546    428.713440
    1733           0      2821.731445   1269.959961  -34363.85546    398.731506
    1734           0      2648.082520   1600.820313  -34363.85546    378.432098
    1735           0      2435.817871   1908.338867  -34363.85546    372.435944
    1736           0      2188.030762   2188.032471  -34363.85546    380.726440
    1737           0      1908.336304   2435.819824  -34363.85546    400.332062
    1738           0      1600.816406   2648.084961  -34363.85546    426.152039
    1739           0      1269.955322   2821.733398  -34363.85546    452.536285
    1740           0       920.576538   2954.235107  -34363.85546    474.242188
    1741           0       557.773071   3043.658203  -34363.85546    487.205841
    1742           0       186.833054   3088.698730  -34363.85546    488.785004
    1743           0      3088.698486    186.834427  -33987.95312    444.980011
    1744           0      3043.657715    557.776489  -33987.95312    426.491028
    1745           0      2954.233887    920.581116  -33987.95312    396.229828
    1746           0      2821.731445   1269.959961  -33987.95312    367.045013
    1747           0      2648.082520   1600.820190  -33987.95312    347.328033
    1748           0      2435.817871   1908.338867  -33987.95312    340.841339
    1749           0      2188.030762   2188.032471  -33987.95312    347.753143
    1750           0      1908.336304   2435.819824  -33987.95312    365.222809
    1751           0      1600.816406   2648.084961  -33987.95312    388.635559
    1752           0      1269.955322   2821.733398  -33987.95312    412.740509
    1753           0       920.576538   2954.235107  -33987.95312    432.689301
    1754           0       557.773071   3043.658203  -33987.95312    444.695465
    1755           0       186.833054   3088.698730  -33987.95312    446.287476
    1756           0      -186.835388   3088.698242  -64812.04687     13.570271
    1757           0      -557.778870   3043.657227  -64812.04687     18.603691
    1758           0      -920.584045   2954.232910  -64812.04687     26.998480
    1759           0     -1269.962769   2821.730225  -64812.04687     39.089199
    1760           0     -1600.822876   2648.081055  -64812.04687     52.698555
    1761           0     -1908.340820   2435.816406  -64812.04687     64.670845
    1762           0     -2188.033447   2188.029785  -64812.04687     71.667313
    1763           0     -2435.820068   1908.335938  -64812.04687     71.866104
    1764           0     -2648.084961   1600.816406  -64812.04687     68.346458
    1765           0     -2821.733643   1269.955078  -64812.04687     74.205513
    1766           0     -2954.235107    920.576782  -64812.04687     99.489815
    1767           0     -3043.657959    557.774109  -64812.04687    134.718735
    1768           0     -3088.698730    186.833649  -64812.04687    163.262238
    1769           0      -186.836182   3088.698242  -64436.14062     14.083107
    1770           0      -557.781006   3043.656738  -64436.14062     18.160088
    1771           0      -920.586792   2954.231934  -64436.14062     26.116518
    1772           0     -1269.965332   2821.729004  -64436.14062     38.518250
    1773           0     -1600.825317   2648.079590  -64436.14062     52.907356
    1774           0     -1908.342651   2435.814941  -64436.14062     65.575653
    1775           0     -2188.034668   2188.028809  -64436.14062     72.949501
    1776           0     -2435.820313   1908.335693  -64436.14062     72.802071
    1777           0     -2648.084473   1600.816650  -64436.14062     68.934784
    1778           0     -2821.733398   1269.955322  -64436.14062     75.613823
    1779           0     -2954.234863    920.577759  -64436.14062    103.946625
    1780           0     -3043.657959    557.775696  -64436.14062    141.436630
    1781           0     -3088.698242    186.834366  -64436.14062    170.825287
    1782           0      -186.836182   3088.698242  -64060.24218     14.861281
    1783           0      -557.780945   3043.656738  -64060.24218     18.192146
    1784           0      -920.586670   2954.231934  -64060.24218     24.678427
    1785           0     -1269.965332   2821.729004  -64060.24218     35.440582
    1786           0     -1600.825195   2648.079590  -64060.24218     48.376877
    1787           0     -1908.342529   2435.814941  -64060.24218     60.359661
    1788           0     -2188.034668   2188.028809  -64060.24218     68.084290
    1789           0     -2435.820313   1908.335693  -64060.24218     69.958733
    1790           0     -2648.084473   1600.816650  -64060.24218     68.814819
    1791           0     -2821.733398   1269.955322  -64060.24218     75.619339
    1792           0     -2954.234863    920.577759  -64060.24218     97.803978
    1793           0     -3043.657959    557.775696  -64060.24218    126.799080
    1794           0     -3088.698242    186.834366  -64060.24218    147.136841
    1795           0      -186.836151   3088.698242  -63684.33984     16.303314
    1796           0      -557.780945   3043.656738  -63684.33984     18.600922
    1797           0      -920.586670   2954.231934  -63684.33984     23.821507
    1798           0     -1269.965332   2821.729004  -63684.33984     33.555233
    1799           0     -1600.825195   2648.079590  -63684.33984     46.002972
    1800           0     -1908.342529   2435.814941  -63684.33984     57.932255
    1801           0     -2188.034668   2188.028809  -63684.33984     66.248924
    1802           0     -2435.820313   1908.335693  -63684.33984     69.205139
    1803           0     -2648.084473   1600.816650  -63684.33984     69.567314
    1804           0     -2821.733398   1269.955322  -63684.33984     76.528336
    1805           0     -2954.234863    920.577637  -63684.33984     96.497444
    1806           0     -3043.657959    557.775635  -63684.33984    121.704330
    1807           0     -3088.698242    186.834366  -63684.33984    137.403870
    1808           0      -186.836151   3088.698242  -63308.43359     17.935368
    1809           0      -557.780884   3043.656738  -63308.43359     19.526213
    1810           0      -920.586609   2954.231934  -63308.43359     23.486895
    1811           0     -1269.965210   2821.729004  -63308.43359     31.890987
    1812           0     -1600.825195   2648.079590  -63308.43359     43.343594
    1813           0     -1908.342529   2435.814941  -63308.43359     54.899815
    1814           0     -2188.034668   2188.028809  -63308.43359     63.595036
    1815           0     -2435.820313   1908.335693  -63308.43359     67.894295
    1816           0     -2648.084473   1600.816650  -63308.43359     70.042191
    1817           0     -2821.733398   1269.955322  -63308.43359     77.163513
    1818           0     -2954.234863    920.577515  -63308.43359     93.955490
    1819           0     -3043.657959    557.775452  -63308.43359    113.484245
    1820           0     -3088.698242    186.834290  -63308.43359    122.881821
    1821           0      -186.836121   3088.698242  -62932.53125     19.959902
    1822           0      -557.780823   3043.656738  -62932.53125     20.884369
    1823           0      -920.586548   2954.231934  -62932.53125     23.667160
    1824           0     -1269.965088   2821.729004  -62932.53125     30.710798
    1825           0     -1600.825195   2648.079590  -62932.53125     41.212879
    1826           0     -1908.342407   2435.815186  -62932.53125     52.432713
    1827           0     -2188.034424   2188.028809  -62932.53125     61.562450
    1828           0     -2435.820313   1908.335693  -62932.53125     67.096542
    1829           0     -2648.084473   1600.816650  -62932.53125     70.762665
    1830           0     -2821.733398   1269.955322  -62932.53125     78.029076
    1831           0     -2954.234863    920.577515  -62932.53125     92.037163
    1832           0     -3043.657959    557.775391  -62932.53125    106.681618
    1833           0     -3088.698242    186.834213  -62932.53125    110.299965
    1834           0      -186.836090   3088.698242  -62556.62500     22.167435
    1835           0      -557.780762   3043.656738  -62556.62500     22.602818
    1836           0      -920.586487   2954.231934  -62556.62500     24.397131
    1837           0     -1269.965088   2821.729004  -62556.62500     30.083601
    1838           0     -1600.824951   2648.079590  -62556.62500     39.496353
    1839           0     -1908.342407   2435.815430  -62556.62500     50.263847
    1840           0     -2188.034180   2188.029053  -62556.62500     59.742966
    1841           0     -2435.820313   1908.335693  -62556.62500     66.450119
    1842           0     -2648.084473   1600.816650  -62556.62500     71.567482
    1843           0     -2821.733398   1269.955322  -62556.62500     78.940361
    1844           0     -2954.234863    920.577515  -62556.62500     90.298233
    1845           0     -3043.657959    557.775391  -62556.62500     99.943970
    1846           0     -3088.698242    186.834213  -62556.62500     97.520546
    1847           0      -186.836060   3088.698242  -62180.72656     24.580311
    1848           0      -557.780762   3043.656738  -62180.72656     24.639910
    1849           0      -920.586365   2954.232178  -62180.72656     25.637503
    1850           0     -1269.964966   2821.729004  -62180.72656     30.038950
    1851           0     -1600.824951   2648.079590  -62180.72656     38.297356
    1852           0     -1908.342285   2435.815430  -62180.72656     48.532177
    1853           0     -2188.034180   2188.029053  -62180.72656     58.305759
    1854           0     -2435.820313   1908.335693  -62180.72656     66.103203
    1855           0     -2648.084473   1600.816650  -62180.72656     72.524048
    1856           0     -2821.733398   1269.955322  -62180.72656     79.972977
    1857           0     -2954.234863    920.577515  -62180.72656     88.848602
    1858           0     -3043.657959    557.775391  -62180.72656     93.699646
    1859           0     -3088.698242    186.834213  -62180.72656     85.264832
    1860           0      -186.836060   3088.698242  -61804.82421     27.140394
    1861           0      -557.780640   3043.656738  -61804.82421     26.929787
    1862           0      -920.586304   2954.232178  -61804.82421     27.332979
    1863           0     -1269.964966   2821.729004  -61804.82421     30.600718
    1864           0     -1600.824951   2648.079590  -61804.82421     37.673317
    1865           0     -1908.342285   2435.815430  -61804.82421     47.281425
    1866           0     -2188.034180   2188.029053  -61804.82421     57.257671
    1867           0     -2435.820313   1908.335693  -61804.82421     66.037689
    1868           0     -2648.084473   1600.816650  -61804.82421     73.628731
    1869           0     -2821.733398   1269.955322  -61804.82421     81.102997
    1870           0     -2954.234863    920.577515  -61804.82421     87.718140
    1871           0     -3043.657959    557.775391  -61804.82421     87.867142
    1872           0     -3088.698242    186.834213  -61804.82421     73.834435
    1873           0      -186.836029   3088.698242  -61428.91796     29.833315
    1874           0      -557.780579   3043.656738  -61428.91796     29.432854
    1875           0      -920.586243   2954.232178  -61428.91796     29.420530
    1876           0     -1269.964844   2821.729004  -61428.91796     31.745710
    1877           0     -1600.824829   2648.079590  -61428.91796     37.662064
    1878           0     -1908.342285   2435.815430  -61428.91796     46.560970
    1879           0     -2188.034180   2188.029053  -61428.91796     56.638092
    1880           0     -2435.820313   1908.335693  -61428.91796     66.280861
    1881           0     -2648.084473   1600.816650  -61428.91796     74.886749
    1882           0     -2821.733398   1269.955322  -61428.91796     82.369408
    1883           0     -2954.234863    920.577515  -61428.91796     86.876038
    1884           0     -3043.657959    557.775391  -61428.91796     82.561348
    1885           0     -3088.698242    186.834213  -61428.91796     63.729862
    1886           0      -186.836014   3088.698242  -61053.01171     32.640232
    1887           0      -557.780518   3043.656738  -61053.01171     32.112251
    1888           0      -920.586182   2954.232178  -61053.01171     31.834908
    1889           0     -1269.964844   2821.729004  -61053.01171     33.425339
    1890           0     -1600.824707   2648.079590  -61053.01171     38.274784
    1891           0     -1908.342285   2435.815430  -61053.01171     46.405102
    1892           0     -2188.034180   2188.029053  -61053.01171     56.473652
    1893           0     -2435.820313   1908.335693  -61053.01171     66.836937
    1894           0     -2648.084473   1600.816650  -61053.01171     76.314407
    1895           0     -2821.733398   1269.955322  -61053.01171     83.760887
    1896           0     -2954.234863    920.577515  -61053.01171     86.335991
    1897           0     -3043.657959    557.775330  -61053.01171     77.853706
    1898           0     -3088.698242    186.834213  -61053.01171     55.937977
    1899           0      -186.835999   3088.698242  -60677.10937     35.550072
    1900           0      -557.780518   3043.656738  -60677.10937     34.942135
    1901           0      -920.586121   2954.232178  -60677.10937     34.519669
    1902           0     -1269.964844   2821.729492  -60677.10937     35.574646
    1903           0     -1600.824707   2648.079834  -60677.10937     39.491047
    1904           0     -1908.342285   2435.815430  -60677.10937     46.829155
    1905           0     -2188.034180   2188.029053  -60677.10937     56.775398
    1906           0     -2435.820313   1908.335693  -60677.10937     67.715134
    1907           0     -2648.084473   1600.816650  -60677.10937     77.912697
    1908           0     -2821.733398   1269.955322  -60677.10937     85.295700
    1909           0     -2954.234863    920.577393  -60677.10937     86.060402
    1910           0     -3043.657959    557.775269  -60677.10937     73.907593
    1911           0     -3088.698242    186.834213  -60677.10937     51.487473
    1912           0      -186.835968   3088.698242  -60301.20312     38.554787
    1913           0      -557.780457   3043.656738  -60301.20312     37.901669
    1914           0      -920.586060   2954.232178  -60301.20312     37.428272
    1915           0     -1269.964600   2821.729492  -60301.20312     38.122826
    1916           0     -1600.824707   2648.080078  -60301.20312     41.265076
    1917           0     -1908.342041   2435.815430  -60301.20312     47.824329
    1918           0     -2188.034180   2188.029053  -60301.20312     57.548397
    1919           0     -2435.820313   1908.335693  -60301.20312     68.911575
    1920           0     -2648.084473   1600.816650  -60301.20312     79.695053
    1921           0     -2821.733398   1269.955322  -60301.20312     86.956490
    1922           0     -2954.234863    920.577393  -60301.20312     86.046921
    1923           0     -3043.657959    557.775208  -60301.20312     70.848999
    1924           0     -3088.698242    186.834137  -60301.20312     51.297134
    1925           0      -186.835968   3088.698242  -59925.29687     41.648647
    1926           0      -557.780396   3043.656738  -59925.29687     40.976154
    1927           0      -920.586060   2954.232178  -59925.29687     40.522655
    1928           0     -1269.964600   2821.729492  -59925.29687     41.005493
    1929           0     -1600.824707   2648.080078  -59925.29687     43.534489
    1930           0     -1908.342041   2435.815430  -59925.29687     49.362076
    1931           0     -2188.034180   2188.029297  -59925.29687     58.779480
    1932           0     -2435.820313   1908.335693  -59925.29687     70.427513
    1933           0     -2648.084473   1600.816528  -59925.29687     81.657333
    1934           0     -2821.733398   1269.955322  -59925.29687     88.742973
    1935           0     -2954.234863    920.577393  -59925.29687     86.261803
    1936           0     -3043.657959    557.775146  -59925.29687     68.844261
    1937           0     -3088.698242    186.834076  -59925.29687     55.255581
    1938           0      -186.835938   3088.698242  -59549.39843     44.828022
    1939           0      -557.780396   3043.656738  -59549.39453     44.153675
    1940           0      -920.585938   2954.232178  -59549.39453     43.774078
    1941           0     -1269.964600   2821.729492  -59549.39453     44.163273
    1942           0     -1600.824463   2648.080078  -59549.39453     46.233807
    1943           0     -1908.342041   2435.815430  -59549.39453     51.397209
    1944           0     -2188.034180   2188.029297  -59549.39453     60.448383
    1945           0     -2435.820313   1908.335938  -59549.39843     72.251709
    1946           0     -2648.084717   1600.816528  -59549.39843     83.803894
    1947           0     -2821.733398   1269.955322  -59549.39843     90.630989
    1948           0     -2954.234863    920.577393  -59549.39843     86.695198
    1949           0     -3043.657959    557.775146  -59549.39843     67.982330
    1950           0     -3088.698242    186.834076  -59549.39843     62.430191
    1951           0      -186.835907   3088.698242  -59173.49609     48.090359
    1952           0      -557.780273   3043.656738  -59173.49218     47.426517
    1953           0      -920.585876   2954.232178  -59173.49218     47.158688
    1954           0     -1269.964478   2821.729492  -59173.49218     47.549118
    1955           0     -1600.824341   2648.080078  -59173.49218     49.294895
    1956           0     -1908.342041   2435.815430  -59173.49218     53.878700
    1957           0     -2188.034180   2188.029297  -59173.49609     62.524456
    1958           0     -2435.820313   1908.335938  -59173.49609     74.373970
    1959           0     -2648.084717   1600.816528  -59173.49609     86.122894
    1960           0     -2821.733398   1269.955322  -59173.49609     92.608261
    1961           0     -2954.234863    920.577393  -59173.49609     87.317360
    1962           0     -3043.657959    557.775146  -59173.49609     68.318611
    1963           0     -3088.698242    186.834076  -59173.49609     71.642998
    1964           0      -186.835876   3088.698242  -58797.59375     51.434502
    1965           0      -557.780273   3043.656738  -58797.59375     50.787895
    1966           0      -920.585815   2954.232178  -58797.59375     50.659359
    1967           0     -1269.964478   2821.729492  -58797.59375     51.122303
    1968           0     -1600.824341   2648.080078  -58797.58984     52.658989
    1969           0     -1908.342041   2435.815430  -58797.58984     56.748619
    1970           0     -2188.034180   2188.029297  -58797.58984     64.975685
    1971           0     -2435.820313   1908.335938  -58797.58984     76.775505
    1972           0     -2648.084717   1600.816528  -58797.58984     88.605156
    1973           0     -2821.733398   1269.955322  -58797.58984     94.646843
    1974           0     -2954.234863    920.577393  -58797.58984     88.114555
    1975           0     -3043.657959    557.775146  -58797.58984     69.803993
    1976           0     -3088.698242    186.834076  -58797.58984     82.001495
    1977           0      -186.835876   3088.698242  -58421.68750     54.859463
    1978           0      -557.780212   3043.656738  -58421.69140     54.233856
    1979           0      -920.585693   2954.232178  -58421.69140     54.262791
    1980           0     -1269.964355   2821.729492  -58421.69140     54.851238
    1981           0     -1600.824341   2648.080078  -58421.68750     56.272434
    1982           0     -1908.342041   2435.815430  -58421.68750     59.953838
    1983           0     -2188.034180   2188.029297  -58421.68750     67.763161
    1984           0     -2435.820313   1908.335938  -58421.68750     79.438469
    1985           0     -2648.084717   1600.816528  -58421.68750     91.230530
    1986           0     -2821.733398   1269.955322  -58421.68750     96.726929
    1987           0     -2954.234863    920.577393  -58421.68750     89.059090
    1988           0     -3043.657959    557.775085  -58421.68750     72.335747
    1989           0     -3088.698242    186.834076  -58421.68750     92.900261
    1990           0      -186.835846   3088.698242  -58045.78125     58.365448
    1991           0      -557.780151   3043.656738  -58045.78125     57.760677
    1992           0      -920.585693   2954.232422  -58045.78125     57.956059
    1993           0     -1269.964355   2821.729492  -58045.78125     58.712273
    1994           0     -1600.824341   2648.080078  -58045.78125     60.093246
    1995           0     -1908.341919   2435.815674  -58045.78125     63.442406
    1996           0     -2188.034180   2188.029297  -58045.78125     70.850929
    1997           0     -2435.820313   1908.335938  -58045.78125     82.336754
    1998           0     -2648.084717   1600.816528  -58045.78125     93.980255
    1999           0     -2821.733398   1269.955322  -58045.78125     98.820831
    2000           0     -2954.234863    920.577271  -58045.78125     90.133492
    2001           0     -3043.657959    557.774963  -58045.78125     75.746399
    2002           0     -3088.698242    186.834076  -58045.78125    103.964066
    2003           0      -186.835846   3088.698242  -57669.87890     61.952885
    2004           0      -557.780151   3043.656738  -57669.87890     61.366329
    2005           0      -920.585571   2954.232422  -57669.87890     61.732265
    2006           0     -1269.964355   2821.729492  -57669.87890     62.682087
    2007           0     -1600.824219   2648.080078  -57669.87890     64.083031
    2008           0     -1908.341675   2435.815674  -57669.87890     67.170891
    2009           0     -2188.034180   2188.029297  -57669.87890     74.199913
    2010           0     -2435.820313   1908.335938  -57669.87890     85.445457
    2011           0     -2648.084717   1600.816528  -57669.87890     96.828056
    2012           0     -2821.733398   1269.955322  -57669.87890    100.907295
    2013           0     -2954.234863    920.577271  -57669.87890     91.311760
    2014           0     -3043.657959    557.774963  -57669.87890     79.857277
    2015           0     -3088.698242    186.834076  -57669.87890    114.946426
    2016           0      -186.835815   3088.698242  -57293.97656     65.622597
    2017           0      -557.780029   3043.656738  -57293.97656     65.049057
    2018           0      -920.585571   2954.232422  -57293.97656     65.584900
    2019           0     -1269.964111   2821.729736  -57293.97656     66.746803
    2020           0     -1600.824219   2648.080078  -57293.97656     68.212082
    2021           0     -1908.341675   2435.815674  -57293.97656     71.098740
    2022           0     -2188.034180   2188.029297  -57293.97656     77.775009
    2023           0     -2435.820313   1908.335938  -57293.97656     88.734108
    2024           0     -2648.084717   1600.816528  -57293.97656     99.749725
    2025           0     -2821.733398   1269.955322  -57293.97656    102.961533
    2026           0     -2954.234863    920.577271  -57293.97656     92.574036
    2027           0     -3043.657959    557.774902  -57293.97656     84.482742
    2028           0     -3088.698242    186.834000  -57293.97656    125.689728
    2029           0      -186.835785   3088.698242  -56918.07421     69.375717
    2030           0      -557.779968   3043.656738  -56918.07421     68.808365
    2031           0      -920.585449   2954.232422  -56918.07421     69.507248
    2032           0     -1269.964111   2821.729736  -56918.07421     70.890053
    2033           0     -1600.824219   2648.080078  -56918.07421     72.458008
    2034           0     -1908.341675   2435.815674  -56918.07421     75.192924
    2035           0     -2188.034180   2188.029297  -56918.07421     81.540482
    2036           0     -2435.820313   1908.335938  -56918.07421     92.173737
    2037           0     -2648.084717   1600.816528  -56918.07421    102.716988
    2038           0     -2821.733398   1269.955322  -56918.07421    104.964752
    2039           0     -2954.234863    920.577271  -56918.07421     93.895103
    2040           0     -3043.657959    557.774841  -56918.07421     89.458427
    2041           0     -3088.698242    186.833923  -56918.07421    136.085037
    2042           0      -186.835785   3088.698242  -56542.17187     73.213593
    2043           0      -557.779907   3043.656738  -56542.17187     72.643555
    2044           0      -920.585388   2954.232422  -56542.17187     73.495888
    2045           0     -1269.964111   2821.729736  -56542.17187     75.103027
    2046           0     -1600.824219   2648.080078  -56542.17187     76.797188
    2047           0     -1908.341675   2435.815674  -56542.17187     79.422501
    2048           0     -2188.034180   2188.029297  -56542.17187     85.464546
    2049           0     -2435.820313   1908.335938  -56542.16796     95.732239
    2050           0     -2648.084717   1600.816528  -56542.16796    105.704712
    2051           0     -2821.733398   1269.955322  -56542.16796    106.897057
    2052           0     -2954.234863    920.577271  -56542.16796     95.254143
    2053           0     -3043.657959    557.774841  -56542.16796     94.637505
    2054           0     -3088.698242    186.833923  -56542.16796    146.059967
    2055           0      -186.835754   3088.698242  -56166.26562     77.137810
    2056           0      -557.779907   3043.656738  -56166.26562     76.554871
    2057           0      -920.585327   2954.232422  -56166.26562     77.547028
    2058           0     -1269.964111   2821.729736  -56166.26562     79.376610
    2059           0     -1600.823975   2648.080078  -56166.26562     81.214081
    2060           0     -1908.341675   2435.815674  -56166.26562     83.761795
    2061           0     -2188.033936   2188.029297  -56166.26562     89.515068
    2062           0     -2435.820313   1908.335938  -56166.26562     99.380058
    2063           0     -2648.084717   1600.816528  -56166.26562    108.686302
    2064           0     -2821.733398   1269.955322  -56166.26562    108.743896
    2065           0     -2954.234863    920.577271  -56166.26562     96.627327
    2066           0     -3043.657959    557.774841  -56166.26562     99.898712
    2067           0     -3088.698242    186.833923  -56166.26562    155.562927
    2068           0      -186.835754   3088.698242  -55790.35937     81.149811
    2069           0      -557.779846   3043.656738  -55790.36328     80.542229
    2070           0      -920.585205   2954.232422  -55790.36328     81.658600
    2071           0     -1269.963989   2821.729736  -55790.36328     83.702362
    2072           0     -1600.823975   2648.080078  -55790.36328     85.693748
    2073           0     -1908.341553   2435.815918  -55790.36328     88.187355
    2074           0     -2188.033936   2188.029541  -55790.35937     93.663208
    2075           0     -2435.820313   1908.335938  -55790.35937    103.086823
    2076           0     -2648.084717   1600.816528  -55790.35937    111.638748
    2077           0     -2821.733398   1269.955322  -55790.35937    110.491425
    2078           0     -2954.234863    920.577148  -55790.35937     97.993874
    2079           0     -3043.657959    557.774780  -55790.35937    105.139359
    2080           0     -3088.698242    186.833923  -55790.35937    164.559891
    2081           0      -186.835724   3088.698242  -55414.46093     85.251343
    2082           0      -557.779785   3043.656738  -55414.46093     84.606903
    2083           0      -920.585205   2954.232422  -55414.46093     85.828171
    2084           0     -1269.963867   2821.729736  -55414.46093     88.074745
    2085           0     -1600.823975   2648.080322  -55414.46093     90.223427
    2086           0     -1908.341553   2435.815918  -55414.46093     92.678436
    2087           0     -2188.033936   2188.029541  -55414.45312     97.881134
    2088           0     -2435.820313   1908.335938  -55414.45312    106.824547
    2089           0     -2648.084717   1600.816528  -55414.45312    114.539848
    2090           0     -2821.733398   1269.955322  -55414.45312    112.129951
    2091           0     -2954.234863    920.577148  -55414.45312     99.331474
    2092           0     -3043.657959    557.774658  -55414.45312    110.277054
    2093           0     -3088.698242    186.833923  -55414.45312    173.026932
    2094           0      -186.835693   3088.698242  -55038.55468     89.443672
    2095           0      -557.779663   3043.656738  -55038.55468     88.748642
    2096           0      -920.585144   2954.232422  -55038.55468     90.054756
    2097           0     -1269.963867   2821.729736  -55038.55468     92.488174
    2098           0     -1600.823853   2648.080322  -55038.55468     94.791908
    2099           0     -1908.341553   2435.815918  -55038.55468     97.215874
    2100           0     -2188.033936   2188.029541  -55038.55468    102.143600
    2101           0     -2435.820313   1908.335938  -55038.55468    110.566116
    2102           0     -2648.084717   1600.816528  -55038.55468    117.370857
    2103           0     -2821.733398   1269.955322  -55038.55468    113.651199
    2104           0     -2954.234863    920.577148  -55038.55468    100.620796
    2105           0     -3043.657959    557.774658  -55038.55468    115.242889
    2106           0     -3088.698242    186.833923  -55038.55468    180.949417
    2107           0      -186.835663   3088.698242  -54662.65234     93.729233
    2108           0      -557.779602   3043.656738  -54662.64843     92.970139
    2109           0      -920.585022   2954.232422  -54662.64843     94.337196
    2110           0     -1269.963867   2821.729980  -54662.64843     96.938248
    2111           0     -1600.823730   2648.080566  -54662.64843     99.388840
    2112           0     -1908.341553   2435.815918  -54662.64843    101.782379
    2113           0     -2188.033936   2188.029541  -54662.64843    106.426575
    2114           0     -2435.820313   1908.335938  -54662.65234    114.287231
    2115           0     -2648.084717   1600.816528  -54662.65234    120.114845
    2116           0     -2821.733398   1269.955322  -54662.65234    115.050377
    2117           0     -2954.234863    920.577148  -54662.65234    101.842133
    2118           0     -3043.657959    557.774658  -54662.65234    119.981812
    2119           0     -3088.698242    186.833923  -54662.65234    188.317612
    2120           0      -186.835663   3088.698242  -54286.74609     98.107635
    2121           0      -557.779602   3043.656738  -54286.74609     97.269836
    2122           0      -920.584900   2954.232422  -54286.74609     98.675484
    2123           0     -1269.963623   2821.729980  -54286.74609    101.421211
    2124           0     -1600.823730   2648.080566  -54286.74609    104.004997
    2125           0     -1908.341553   2435.815918  -54286.74609    106.361946
    2126           0     -2188.033936   2188.029541  -54286.74609    110.708427
    2127           0     -2435.820313   1908.335938  -54286.74609    117.965332
    2128           0     -2648.084717   1600.816528  -54286.74609    122.758217
    2129           0     -2821.733398   1269.955322  -54286.74609    116.324318
    2130           0     -2954.234863    920.577148  -54286.74609    102.977737
    2131           0     -3043.657959    557.774658  -54286.74609    124.448814
    2132           0     -3088.698242    186.833923  -54286.74609    195.127625
    2133           0      -186.835632   3088.698242  -53910.84375    102.583427
    2134           0      -557.779541   3043.656738  -53910.84765    101.651108
    2135           0      -920.584900   2954.232422  -53910.84765    103.069618
    2136           0     -1269.963623   2821.729980  -53910.84765    105.933846
    2137           0     -1600.823730   2648.080566  -53910.84765    108.632271
    2138           0     -1908.341553   2435.815918  -53910.84765    110.940346
    2139           0     -2188.033936   2188.029541  -53910.84765    114.969360
    2140           0     -2435.820313   1908.335938  -53910.84375    121.580956
    2141           0     -2648.084717   1600.816528  -53910.84375    125.289848
    2142           0     -2821.733398   1269.955322  -53910.84375    117.472450
    2143           0     -2954.234863    920.577148  -53910.84375    104.011398
    2144           0     -3043.657959    557.774597  -53910.84375    128.607788
    2145           0     -3088.698242    186.833862  -53910.84375    201.378647
    2146           0      -186.835617   3088.698242  -53534.93750    107.155357
    2147           0      -557.779480   3043.656982  -53534.94140    106.116081
    2148           0      -920.584839   2954.232422  -53534.94140    107.519943
    2149           0     -1269.963623   2821.729980  -53534.94140    110.472649
    2150           0     -1600.823730   2648.080566  -53534.94140    113.262268
    2151           0     -1908.341431   2435.815918  -53534.94140    115.503166
    2152           0     -2188.033936   2188.029541  -53534.93750    119.191002
    2153           0     -2435.820313   1908.335938  -53534.93750    125.115799
    2154           0     -2648.084717   1600.816528  -53534.93750    127.701111
    2155           0     -2821.733398   1269.955322  -53534.93750    118.495445
    2156           0     -2954.234863    920.577148  -53534.93750    104.928299
    2157           0     -3043.657959    557.774536  -53534.93750    132.428757
    2158           0     -3088.698242    186.833786  -53534.93750    207.071365
    2159           0      -186.835602   3088.698242  -53159.03906    111.824860
    2160           0      -557.779419   3043.656982  -53159.03906    110.662331
    2161           0      -920.584717   2954.232422  -53159.03906    112.024956
    2162           0     -1269.963501   2821.729980  -53159.03906    115.034462
    2163           0     -1600.823730   2648.080566  -53159.03906    117.886810
    2164           0     -1908.341309   2435.815918  -53159.03906    120.037743
    2165           0     -2188.033691   2188.029541  -53159.03906    123.356003
    2166           0     -2435.820313   1908.335938  -53159.03906    128.554825
    2167           0     -2648.084717   1600.816528  -53159.03906    129.985001
    2168           0     -2821.733398   1269.955322  -53159.03906    119.396385
    2169           0     -2954.234863    920.577026  -53159.03906    105.715294
    2170           0     -3043.657959    557.774475  -53159.03906    135.887650
    2171           0     -3088.698242    186.833786  -53159.03906    212.207901
    2172           0      -186.835571   3088.698242  -52783.13281    116.594872
    2173           0      -557.779419   3043.657227  -52783.13281    115.294922
    2174           0      -920.584717   2954.232910  -52783.13281    116.586250
    2175           0     -1269.963501   2821.729980  -52783.13281    119.617142
    2176           0     -1600.823486   2648.080566  -52783.13281    122.499451
    2177           0     -1908.341309   2435.815918  -52783.13281    124.532623
    2178           0     -2188.033691   2188.029541  -52783.13281    127.450798
    2179           0     -2435.820313   1908.335938  -52783.13281    131.884979
    2180           0     -2648.084717   1600.816528  -52783.13281    132.138596
    2181           0     -2821.733398   1269.955322  -52783.13281    120.178886
    2182           0     -2954.234863    920.577026  -52783.13281    106.362144
    2183           0     -3043.657959    557.774414  -52783.13281    138.966461
    2184           0     -3088.698242    186.833786  -52783.13281    216.793060
    2185           0      -186.835571   3088.698242  -52407.22656    121.464310
    2186           0      -557.779297   3043.657227  -52407.22656    120.012993
    2187           0      -920.584656   2954.232910  -52407.22656    121.205032
    2188           0     -1269.963379   2821.729980  -52407.22656    124.218483
    2189           0     -1600.823486   2648.080566  -52407.22656    127.094147
    2190           0     -1908.341309   2435.815918  -52407.22656    128.978104
    2191           0     -2188.033691   2188.029541  -52407.22656    131.462250
    2192           0     -2435.820068   1908.335938  -52407.23046    135.096420
    2193           0     -2648.084717   1600.816528  -52407.23046    134.159439
    2194           0     -2821.733398   1269.955322  -52407.23046    120.849167
    2195           0     -2954.234863    920.577026  -52407.23046    106.859940
    2196           0     -3043.657959    557.774414  -52407.23046    141.651016
    2197           0     -3088.698242    186.833786  -52407.23046    220.831848
    2198           0      -186.835541   3088.698242  -52031.32421    126.435440
    2199           0      -557.779236   3043.657227  -52031.32421    124.819214
    2200           0      -920.584534   2954.232910  -52031.32421    125.881538
    2201           0     -1269.963379   2821.729980  -52031.32421    128.836868
    2202           0     -1600.823486   2648.080566  -52031.32421    131.664581
    2203           0     -1908.341309   2435.815918  -52031.32421    133.364090
    2204           0     -2188.033691   2188.029541  -52031.32421    135.379776
    2205           0     -2435.820068   1908.335938  -52031.32812    138.180542
    2206           0     -2648.084717   1600.816528  -52031.32812    136.047867
    2207           0     -2821.733398   1269.955322  -52031.32812    121.413994
    2208           0     -2954.234863    920.577026  -52031.32812    107.202515
    2209           0     -3043.657959    557.774414  -52031.32812    143.929855
    2210           0     -3088.698242    186.833786  -52031.32812    224.330795
    2211           0      -186.835541   3088.698242  -51655.42187    131.508072
    2212           0      -557.779236   3043.657227  -51655.42187    129.713959
    2213           0      -920.584473   2954.232910  -51655.42187    130.616837
    2214           0     -1269.963379   2821.729980  -51655.42187    133.470200
    2215           0     -1600.823364   2648.080566  -51655.42187    136.206512
    2216           0     -1908.341309   2435.816162  -51655.42187    137.683807
    2217           0     -2188.033691   2188.029785  -51655.42187    139.193741
    2218           0     -2435.820068   1908.335938  -51655.42187    141.131561
    2219           0     -2648.084717   1600.816528  -51655.42187    137.805191
    2220           0     -2821.733398   1269.955322  -51655.42187    121.881454
    2221           0     -2954.234863    920.577026  -51655.42187    107.386230
    2222           0     -3043.657959    557.774414  -51655.42187    145.795532
    2223           0     -3088.698242    186.833786  -51655.42187    227.295059
    2224           0      -186.835510   3088.698242  -51279.51562    136.683411
    2225           0      -557.779175   3043.657227  -51279.51562    134.698273
    2226           0      -920.584412   2954.232910  -51279.51562    135.411713
    2227           0     -1269.963257   2821.729980  -51279.51562    138.117752
    2228           0     -1600.823364   2648.080566  -51279.51562    140.713455
    2229           0     -1908.341309   2435.816162  -51279.51562    141.927765
    2230           0     -2188.033691   2188.029785  -51279.51562    142.896667
    2231           0     -2435.820068   1908.335938  -51279.51562    143.945053
    2232           0     -2648.084717   1600.816528  -51279.51562    139.434784
    2233           0     -2821.733398   1269.955322  -51279.51562    122.261169
    2234           0     -2954.234863    920.577026  -51279.51562    107.409431
    2235           0     -3043.657959    557.774414  -51279.51562    147.243088
    2236           0     -3088.698242    186.833786  -51279.51562    229.730576
    2237           0      -186.835480   3088.698242  -50903.60937    141.961380
    2238           0      -557.779114   3043.657227  -50903.60937    139.773605
    2239           0      -920.584351   2954.232910  -50903.60937    140.266754
    2240           0     -1269.963135   2821.729980  -50903.60937    142.778900
    2241           0     -1600.823364   2648.080566  -50903.60937    145.185257
    2242           0     -1908.341064   2435.816406  -50903.60937    146.090302
    2243           0     -2188.033691   2188.029785  -50903.60937    146.483765
    2244           0     -2435.820068   1908.335938  -50903.61718    146.618698
    2245           0     -2648.084717   1600.816528  -50903.61718    140.940918
    2246           0     -2821.733398   1269.955322  -50903.61718    122.562988
    2247           0     -2954.234863    920.577026  -50903.61718    107.274109
    2248           0     -3043.657959    557.774292  -50903.61718    148.269867
    2249           0     -3088.698242    186.833710  -50903.61718    231.643250
    2250           0      -186.835449   3088.698242  -50527.71093    147.342361
    2251           0      -557.779053   3043.657227  -50527.70703    144.940140
    2252           0      -920.584229   2954.232910  -50527.70703    145.182816
    2253           0     -1269.963135   2821.729980  -50527.70703    147.452072
    2254           0     -1600.823242   2648.080811  -50527.70703    149.613800
    2255           0     -1908.340942   2435.816406  -50527.70703    150.170807
    2256           0     -2188.033691   2188.029785  -50527.71093    149.949860
    2257           0     -2435.820068   1908.335938  -50527.71093    149.151093
    2258           0     -2648.084717   1600.816528  -50527.71093    142.330048
    2259           0     -2821.733398   1269.955322  -50527.71093    122.798553
    2260           0     -2954.234863    920.576904  -50527.71093    106.984604
    2261           0     -3043.657959    557.774170  -50527.71093    148.875320
    2262           0     -3088.698242    186.833633  -50527.71093    233.038849
    2263           0      -186.835449   3088.698242  -50151.80468    152.826843
    2264           0      -557.778992   3043.657227  -50151.80078    150.198700
    2265           0      -920.584229   2954.232910  -50151.80078    150.160614
    2266           0     -1269.963013   2821.729980  -50151.80078    152.136856
    2267           0     -1600.823120   2648.080811  -50151.80078    153.999817
    2268           0     -1908.340942   2435.816406  -50151.80468    154.158707
    2269           0     -2188.033691   2188.029785  -50151.80468    153.292145
    2270           0     -2435.820068   1908.335938  -50151.80468    151.545914
    2271           0     -2648.084717   1600.816528  -50151.80468    143.606628
    2272           0     -2821.733398   1269.955322  -50151.80468    122.980324
    2273           0     -2954.235107    920.576904  -50151.80468    106.548286
    2274           0     -3043.657959    557.774109  -50151.80859    149.061981
    2275           0     -3088.698242    186.833633  -50151.80859    233.923187
    2276           0      -186.835419   3088.698242  -49775.90234    158.414246
    2277           0      -557.778931   3043.657227  -49775.90234    155.549667
    2278           0      -920.584106   2954.232910  -49775.90234    155.200500
    2279           0     -1269.962891   2821.729980  -49775.90234    156.833267
    2280           0     -1600.822998   2648.080811  -49775.90234    158.342636
    2281           0     -1908.340942   2435.816406  -49775.90234    158.056381
    2282           0     -2188.033691   2188.029785  -49775.90234    156.506866
    2283           0     -2435.820068   1908.335938  -49775.90234    153.802429
    2284           0     -2648.084717   1600.816528  -49775.90234    144.780884
    2285           0     -2821.733398   1269.955322  -49775.90234    123.121979
    2286           0     -2954.235107    920.576904  -49775.90234    105.976372
    2287           0     -3043.657959    557.774109  -49775.90234    148.833527
    2288           0     -3088.698242    186.833633  -49775.90234    234.301971
    2289           0      -186.835388   3088.698242  -49400.00000    164.104965
    2290           0      -557.778870   3043.657227  -49400.00000    160.993042
    2291           0      -920.584106   2954.232910  -49400.00000    160.302933
    2292           0     -1269.962891   2821.729980  -49400.00000    161.542267
    2293           0     -1600.822998   2648.080811  -49400.00000    162.638016
    2294           0     -1908.340942   2435.816406  -49400.00000    161.860901
    2295           0     -2188.033691   2188.029785  -49400.00000    159.598740
    2296           0     -2435.820068   1908.335938  -49399.99609    155.923767
    2297           0     -2648.084717   1600.816528  -49400.00000    145.861191
    2298           0     -2821.733398   1269.955200  -49400.00000    123.235748
    2299           0     -2954.235352    920.576782  -49400.00000    105.283539
    2300           0     -3043.657959    557.774109  -49400.00000    148.197479
    2301           0     -3088.698242    186.833633  -49400.00000    234.179977
    2302           0      -186.835388   3088.698242  -49024.09375    169.898193
    2303           0      -557.778870   3043.657227  -49024.09375    166.528641
    2304           0      -920.584045   2954.232910  -49024.09375    165.468613
    2305           0     -1269.962891   2821.730225  -49024.09375    166.262924
    2306           0     -1600.822998   2648.081055  -49024.09375    166.888245
    2307           0     -1908.340942   2435.816406  -49024.09375    165.570496
    2308           0     -2188.033447   2188.029785  -49024.09375    162.565125
    2309           0     -2435.820068   1908.335938  -49024.09375    157.919891
    2310           0     -2648.084961   1600.816406  -49024.09375    146.855515
    2311           0     -2821.733643   1269.955078  -49024.09765    123.335709
    2312           0     -2954.235352    920.576782  -49024.09765    104.489738
    2313           0     -3043.657959    557.774109  -49024.09765    147.161804
    2314           0     -3088.698242    186.833633  -49024.09765    233.563385
    2315           0      -186.835358   3088.698242  -48648.18750    175.793930
    2316           0      -557.778809   3043.657227  -48648.18359    172.156097
    2317           0      -920.583984   2954.232910  -48648.18750    170.697266
    2318           0     -1269.962646   2821.730225  -48648.18750    170.997299
    2319           0     -1600.822998   2648.081055  -48648.18750    171.092270
    2320           0     -1908.340820   2435.816406  -48648.18750    169.186249
    2321           0     -2188.033447   2188.029785  -48648.18750    165.409012
    2322           0     -2435.820068   1908.335938  -48648.18750    159.791855
    2323           0     -2648.084961   1600.816406  -48648.18750    147.773651
    2324           0     -2821.733643   1269.955078  -48648.18750    123.441544
    2325           0     -2954.235352    920.576782  -48648.18750    103.615173
    2326           0     -3043.657959    557.774109  -48648.19140    145.739319
    2327           0     -3088.698242    186.833633  -48648.19140    232.457565
    2328           0      -186.835358   3088.698242  -48272.28906    181.790222
    2329           0      -557.778809   3043.657227  -48272.28515    177.875519
    2330           0      -920.583923   2954.232910  -48272.28515    175.990494
    2331           0     -1269.962646   2821.730225  -48272.28906    175.744904
    2332           0     -1600.822754   2648.081055  -48272.28906    175.251648
    2333           0     -1908.340820   2435.816406  -48272.28906    172.709274
    2334           0     -2188.033447   2188.029785  -48272.28906    168.136734
    2335           0     -2435.820068   1908.335938  -48272.28906    161.548630
    2336           0     -2648.084961   1600.816406  -48272.28906    148.625351
    2337           0     -2821.733643   1269.955078  -48272.28906    123.566963
    2338           0     -2954.235352    920.576660  -48272.28906    102.687775
    2339           0     -3043.657959    557.774048  -48272.28906    143.945465
    2340           0     -3088.698242    186.833633  -48272.28906    230.867950
    2341           0      -186.835327   3088.698242  -47896.38671    187.887726
    2342           0      -557.778687   3043.657227  -47896.38281    183.683411
    2343           0      -920.583862   2954.232910  -47896.38281    181.343918
    2344           0     -1269.962646   2821.730225  -47896.38281    180.507248
    2345           0     -1600.822754   2648.081055  -47896.38671    179.368637
    2346           0     -1908.340698   2435.816406  -47896.38671    176.142029
    2347           0     -2188.033203   2188.029785  -47896.38671    170.748810
    2348           0     -2435.820068   1908.335938  -47896.38671    163.199356
    2349           0     -2648.084961   1600.816406  -47896.38671    149.422684
    2350           0     -2821.733643   1269.955078  -47896.38671    123.727898
    2351           0     -2954.235352    920.576660  -47896.38671    101.739677
    2352           0     -3043.657959    557.773926  -47896.38671    141.798752
    2353           0     -3088.698242    186.833557  -47896.38671    228.801529
    2354           0      -186.835297   3088.698242  -47520.47656    194.086990
    2355           0      -557.778625   3043.657227  -47520.47656    189.582993
    2356           0      -920.583801   2954.232910  -47520.47656    186.759903
    2357           0     -1269.962646   2821.730469  -47520.48046    185.287018
    2358           0     -1600.822754   2648.081055  -47520.48046    183.444992
    2359           0     -1908.340576   2435.816406  -47520.48046    179.486633
    2360           0     -2188.033203   2188.029785  -47520.48046    173.253372
    2361           0     -2435.820068   1908.335938  -47520.48046    164.751862
    2362           0     -2648.084961   1600.816406  -47520.48046    150.176468
    2363           0     -2821.733643   1269.955078  -47520.48046    123.941795
    2364           0     -2954.235352    920.576660  -47520.48437    100.806686
    2365           0     -3043.657959    557.773865  -47520.48437    139.322617
    2366           0     -3088.698242    186.833496  -47520.48437    226.265350
    2367           0      -186.835266   3088.698242  -47144.57812    200.385147
    2368           0      -557.778564   3043.657227  -47144.57812    195.568573
    2369           0      -920.583740   2954.232910  -47144.57812    192.239883
    2370           0     -1269.962524   2821.730469  -47144.57812    190.083878
    2371           0     -1600.822632   2648.081055  -47144.57812    187.482758
    2372           0     -1908.340576   2435.816406  -47144.57812    182.748337
    2373           0     -2188.033203   2188.029785  -47144.57812    175.654297
    2374           0     -2435.820068   1908.335938  -47144.57812    166.216995
    2375           0     -2648.084961   1600.816406  -47144.57812    150.898453
    2376           0     -2821.733643   1269.955078  -47144.57812    124.225685
    2377           0     -2954.235352    920.576660  -47144.57812     99.929558
    2378           0     -3043.657959    557.773865  -47144.57812    136.545761
    2379           0     -3088.698242    186.833496  -47144.57812    223.267807
    2380           0      -186.835266   3088.698242  -46768.67968    206.780212
    2381           0      -557.778503   3043.657227  -46768.68359    201.640808
    2382           0      -920.583618   2954.232910  -46768.68359    197.777725
    2383           0     -1269.962402   2821.730469  -46768.68359    194.898849
    2384           0     -1600.822510   2648.081055  -46768.67968    191.487488
    2385           0     -1908.340576   2435.816406  -46768.67968    185.930008
    2386           0     -2188.033203   2188.029785  -46768.67968    177.960892
    2387           0     -2435.820068   1908.335938  -46768.67968    167.603561
    2388           0     -2648.084961   1600.816406  -46768.67968    151.601059
    2389           0     -2821.733643   1269.955078  -46768.67968    124.596558
    2390           0     -2954.235352    920.576660  -46768.67968     99.152870
    2391           0     -3043.657959    557.773865  -46768.67187    133.503571
    2392           0     -3088.698242    186.833496  -46768.67187    219.818771
    2393           0      -186.835236   3088.698242  -46392.77343    213.271820
    2394           0      -557.778503   3043.657227  -46392.77343    207.800919
    2395           0      -920.583557   2954.232910  -46392.77343    203.377548
    2396           0     -1269.962402   2821.730469  -46392.77343    199.730621
    2397           0     -1600.822510   2648.081055  -46392.77343    195.459030
    2398           0     -1908.340576   2435.816406  -46392.77343    189.037598
    2399           0     -2188.033203   2188.029785  -46392.77343    180.178513
    2400           0     -2435.820068   1908.335938  -46392.76953    168.923447
    2401           0     -2648.084961   1600.816406  -46392.76953    152.296799
    2402           0     -2821.733643   1269.955078  -46392.76953    125.071175
    2403           0     -2954.235352    920.576660  -46392.76953     98.525253
    2404           0     -3043.657959    557.773865  -46392.76953    130.238281
    2405           0     -3088.698242    186.833496  -46392.76953    215.930984
    2406           0      -186.835220   3088.698242  -46016.86718    219.860016
    2407           0      -557.778442   3043.657227  -46016.86328    214.042023
    2408           0      -920.583496   2954.232910  -46016.86718    209.036011
    2409           0     -1269.962402   2821.730469  -46016.86718    204.586227
    2410           0     -1600.822510   2648.081055  -46016.86718    199.401352
    2411           0     -1908.340576   2435.816406  -46016.86718    192.078476
    2412           0     -2188.033203   2188.029785  -46016.86718    182.317429
    2413           0     -2435.819824   1908.336060  -46016.86718    170.187119
    2414           0     -2648.084961   1600.816406  -46016.86718    152.998062
    2415           0     -2821.733643   1269.955078  -46016.86718    125.666016
    2416           0     -2954.235352    920.576660  -46016.86718     98.097351
    2417           0     -3043.657959    557.773865  -46016.86718    126.802139
    2418           0     -3088.698242    186.833496  -46016.86718    211.619492
    2419           0      -186.835205   3088.698242  -45640.96484    226.542068
    2420           0      -557.778320   3043.657227  -45640.96484    220.365921
    2421           0      -920.583435   2954.232910  -45640.96484    214.751358
    2422           0     -1269.962280   2821.730469  -45640.96484    209.459335
    2423           0     -1600.822510   2648.081299  -45640.96484    203.324112
    2424           0     -1908.340576   2435.816650  -45640.96484    195.056015
    2425           0     -2188.033203   2188.030029  -45640.96484    184.381653
    2426           0     -2435.819824   1908.336182  -45640.96484    171.406677
    2427           0     -2648.084961   1600.816406  -45640.96484    153.718185
    2428           0     -2821.733643   1269.955078  -45640.96484    126.396507
    2429           0     -2954.235352    920.576538  -45640.96484     97.921722
    2430           0     -3043.657959    557.773804  -45640.96484    123.256996
    2431           0     -3088.698242    186.833496  -45640.96484    206.903839
    2432           0      -186.835175   3088.698242  -45265.06250    233.317566
    2433           0      -557.778320   3043.657227  -45265.06640    226.768646
    2434           0      -920.583374   2954.232910  -45265.06640    220.521362
    2435           0     -1269.962158   2821.730469  -45265.06250    214.354904
    2436           0     -1600.822388   2648.081299  -45265.06250    207.223938
    2437           0     -1908.340576   2435.816650  -45265.06250    197.979767
    2438           0     -2188.033203   2188.030029  -45265.06250    186.383789
    2439           0     -2435.819824   1908.336182  -45265.06250    172.593674
    2440           0     -2648.084961   1600.816406  -45265.06250    154.469482
    2441           0     -2821.733643   1269.955078  -45265.06250    127.277451
    2442           0     -2954.235352    920.576538  -45265.06250     98.049683
    2443           0     -3043.657959    557.773682  -45265.06250    119.678802
    2444           0     -3088.698242    186.833496  -45265.05859    201.808319
    2445           0      -186.835175   3088.698242  -44889.15625    240.184204
    2446           0      -557.778259   3043.657227  -44889.16015    233.249802
    2447           0      -920.583313   2954.232910  -44889.16015    226.344131
    2448           0     -1269.962158   2821.730469  -44889.16015    219.273010
    2449           0     -1600.822388   2648.081299  -44889.16015    211.109726
    2450           0     -1908.340332   2435.816895  -44889.16015    200.851669
    2451           0     -2188.033203   2188.030273  -44889.15625    188.334641
    2452           0     -2435.819824   1908.336182  -44889.15625    173.760422
    2453           0     -2648.084961   1600.816406  -44889.15625    155.264618
    2454           0     -2821.733643   1269.955078  -44889.15625    128.322876
    2455           0     -2954.235352    920.576538  -44889.15625     98.530128
    2456           0     -3043.658203    557.773621  -44889.15625    116.155960
    2457           0     -3088.698486    186.833420  -44889.15625    196.364761
    2458           0      -186.835144   3088.698242  -44513.25000    247.141373
    2459           0      -557.778198   3043.657227  -44513.25390    239.805573
    2460           0      -920.583252   2954.232910  -44513.25390    232.220795
    2461           0     -1269.962158   2821.730469  -44513.25390    224.214081
    2462           0     -1600.822266   2648.081299  -44513.25390    214.980499
    2463           0     -1908.340210   2435.816895  -44513.25390    203.682144
    2464           0     -2188.033203   2188.030273  -44513.25390    190.236938
    2465           0     -2435.819824   1908.336182  -44513.25390    174.916061
    2466           0     -2648.084961   1600.816406  -44513.25390    156.117691
    2467           0     -2821.733643   1269.955078  -44513.25000    129.543411
    2468           0     -2954.235352    920.576538  -44513.25000     99.407692
    2469           0     -3043.658203    557.773560  -44513.25000    112.794594
    2470           0     -3088.698730    186.833344  -44513.25000    190.610931
    2471           0      -186.835144   3088.698242  -44137.35156    254.186905
    2472           0      -557.778137   3043.657227  -44137.34765    246.437164
    2473           0      -920.583252   2954.232910  -44137.34765    238.145325
    2474           0     -1269.962036   2821.730469  -44137.34765    229.174225
    2475           0     -1600.822266   2648.081299  -44137.34765    218.843231
    2476           0     -1908.340210   2435.816895  -44137.34765    206.479904
    2477           0     -2188.033203   2188.030273  -44137.34765    192.105972
    2478           0     -2435.819824   1908.336182  -44137.35156    176.072433
    2479           0     -2648.084961   1600.816406  -44137.35156    157.039490
    2480           0     -2821.733643   1269.955078  -44137.35156    130.951309
    2481           0     -2954.235352    920.576538  -44137.35156    100.718094
    2482           0     -3043.658203    557.773560  -44137.35156    109.715309
    2483           0     -3088.698730    186.833344  -44137.35156    184.599899
    2484           0      -186.835114   3088.698242  -43761.44531    261.320496
    2485           0      -557.778137   3043.657227  -43761.44140    253.141266
    2486           0      -920.583069   2954.233154  -43761.44140    244.121445
    2487           0     -1269.961914   2821.730469  -43761.44140    234.155914
    2488           0     -1600.822144   2648.081543  -43761.44140    222.700363
    2489           0     -1908.340210   2435.816895  -43761.44140    209.248856
    2490           0     -2188.033203   2188.030273  -43761.44140    193.944977
    2491           0     -2435.819824   1908.336182  -43761.44140    177.242538
    2492           0     -2648.084961   1600.816406  -43761.44140    158.041809
    2493           0     -2821.733643   1269.955078  -43761.44140    132.554749
    2494           0     -2954.235352    920.576538  -43761.44140    102.489563
    2495           0     -3043.658203    557.773560  -43761.44140    107.054337
    2496           0     -3088.698730    186.833344  -43761.44531    178.391937
    2497           0      -186.835083   3088.698242  -43385.53515    268.536682
    2498           0      -557.778015   3043.657227  -43385.53125    259.916107
    2499           0      -920.583008   2954.233154  -43385.53125    250.141464
    2500           0     -1269.961914   2821.730469  -43385.53125    239.160919
    2501           0     -1600.822021   2648.081543  -43385.53125    226.554138
    2502           0     -1908.340210   2435.816895  -43385.53515    211.994141
    2503           0     -2188.033203   2188.030273  -43385.53515    195.768936
    2504           0     -2435.819824   1908.336182  -43385.53906    178.433182
    2505           0     -2648.084961   1600.816406  -43385.53906    159.135986
    2506           0     -2821.733643   1269.955078  -43385.53906    134.360184
    2507           0     -2954.235352    920.576538  -43385.53906    104.740051
    2508           0     -3043.658203    557.773560  -43385.54296    104.958160
    2509           0     -3088.698730    186.833344  -43385.54296    172.070541
    2510           0      -186.835052   3088.698242  -43009.63281    275.835663
    2511           0      -557.777954   3043.657227  -43009.62500    266.756104
    2512           0      -920.582947   2954.233154  -43009.62890    256.206848
    2513           0     -1269.961792   2821.730713  -43009.63281    244.183167
    2514           0     -1600.822021   2648.081543  -43009.63281    230.404465
    2515           0     -1908.340210   2435.816895  -43009.63281    214.724564
    2516           0     -2188.033203   2188.030273  -43009.63281    197.581665
    2517           0     -2435.819824   1908.336182  -43009.63671    179.656952
    2518           0     -2648.084961   1600.816406  -43009.63671    160.330887
    2519           0     -2821.733643   1269.955078  -43009.63671    136.373108
    2520           0     -2954.235352    920.576416  -43009.63671    107.474380
    2521           0     -3043.658203    557.773499  -43009.64062    103.579704
    2522           0     -3088.698730    186.833344  -43009.64062    165.734894
    2523           0      -186.835052   3088.698242  -42633.73437    283.214935
    2524           0      -557.777954   3043.657227  -42633.73437    273.664429
    2525           0      -920.582886   2954.233154  -42633.73437    262.317505
    2526           0     -1269.961670   2821.730713  -42633.73437    249.227371
    2527           0     -1600.822021   2648.081543  -42633.73046    234.255814
    2528           0     -1908.340210   2435.816895  -42633.73046    217.443848
    2529           0     -2188.033203   2188.030273  -42633.73046    199.392944
    2530           0     -2435.819824   1908.336182  -42633.73437    180.920578
    2531           0     -2648.084961   1600.816406  -42633.73437    161.636200
    2532           0     -2821.733643   1269.955078  -42633.73437    138.595901
    2533           0     -2954.235352    920.576294  -42633.73437    110.689560
    2534           0     -3043.658203    557.773376  -42633.73437    103.059364
    2535           0     -3088.698730    186.833344  -42633.73437    159.513367
    2536           0      -186.835022   3088.698242  -42257.83203    290.673279
    2537           0      -557.777893   3043.657227  -42257.83593    280.636597
    2538           0      -920.582825   2954.233154  -42257.83593    268.470581
    2539           0     -1269.961670   2821.730713  -42257.83593    254.291977
    2540           0     -1600.822021   2648.081543  -42257.83593    238.108994
    2541           0     -1908.340088   2435.816895  -42257.83593    220.157181
    2542           0     -2188.033203   2188.030273  -42257.83593    201.209671
    2543           0     -2435.819824   1908.336182  -42257.83593    182.233337
    2544           0     -2648.084961   1600.816406  -42257.83593    163.058853
    2545           0     -2821.733643   1269.955078  -42257.82812    141.029373
    2546           0     -2954.235352    920.576294  -42257.82812    114.371666
    2547           0     -3043.658203    557.773376  -42257.82812    103.521736
    2548           0     -3088.698730    186.833344  -42257.82812    153.555923
    2549           0      -186.835007   3088.698242  -41881.92968    298.207764
    2550           0      -557.777832   3043.657227  -41881.92578    287.672333
    2551           0      -920.582764   2954.233398  -41881.92578    274.662720
    2552           0     -1269.961670   2821.730713  -41881.92578    259.374390
    2553           0     -1600.821777   2648.081543  -41881.92578    241.967209
    2554           0     -1908.340088   2435.816895  -41881.92578    222.869415
    2555           0     -2188.033203   2188.030273  -41881.92578    203.038864
    2556           0     -2435.819824   1908.336182  -41881.92578    183.601395
    2557           0     -2648.084961   1600.816406  -41881.92578    164.604782
    2558           0     -2821.733643   1269.955078  -41881.92578    143.672882
    2559           0     -2954.235352    920.576294  -41881.92578    118.498283
    2560           0     -3043.658203    557.773376  -41881.92968    105.052910
    2561           0     -3088.698730    186.833344  -41881.92968    148.052582
    2562           0      -186.834991   3088.698242  -41506.02343    305.815948
    2563           0      -557.777771   3043.657227  -41506.01953    294.767914
    2564           0      -920.582764   2954.233398  -41506.01953    280.899017
    2565           0     -1269.961548   2821.730713  -41506.01953    264.480042
    2566           0     -1600.821777   2648.081543  -41506.01953    245.829666
    2567           0     -1908.340088   2435.816895  -41506.01953    225.582870
    2568           0     -2188.033203   2188.030273  -41506.02343    204.885315
    2569           0     -2435.819824   1908.336182  -41506.02343    185.032043
    2570           0     -2648.084961   1600.816406  -41506.02343    166.278442
    2571           0     -2821.733643   1269.955078  -41506.02343    146.522552
    2572           0     -2954.235352    920.576294  -41506.02734    123.041969
    2573           0     -3043.658203    557.773315  -41506.02734    107.698318
    2574           0     -3088.698730    186.833282  -41506.02734    143.212677
    2575           0      -186.834961   3088.698242  -41130.12109    313.495392
    2576           0      -557.777710   3043.657227  -41130.12109    301.925842
    2577           0      -920.582581   2954.233398  -41130.12500    287.166870
    2578           0     -1269.961426   2821.730713  -41130.12109    269.596313
    2579           0     -1600.821777   2648.081543  -41130.12109    249.701111
    2580           0     -1908.339966   2435.817139  -41130.12109    228.302719
    2581           0     -2188.033203   2188.030273  -41130.12109    206.755859
    2582           0     -2435.819824   1908.336182  -41130.12109    186.528885
    2583           0     -2648.084961   1600.816406  -41130.12109    168.082123
    2584           0     -2821.733643   1269.955078  -41130.12109    149.574982
    2585           0     -2954.235352    920.576294  -41130.12109    127.968254
    2586           0     -3043.658203    557.773254  -41130.12109    111.453346
    2587           0     -3088.698730    186.833206  -41130.12109    139.285477
    2588           0      -186.834961   3088.698242  -40754.21875    321.242218
    2589           0      -557.777649   3043.657227  -40754.22656    309.139343
    2590           0      -920.582581   2954.233398  -40754.22656    293.487305
    2591           0     -1269.961426   2821.730957  -40754.22656    274.746948
    2592           0     -1600.821655   2648.081543  -40754.22656    253.581161
    2593           0     -1908.339844   2435.817139  -40754.22265    231.026810
    2594           0     -2188.032959   2188.030273  -40754.21875    208.652786
    2595           0     -2435.819824   1908.336182  -40754.21875    188.096954
    2596           0     -2648.084961   1600.816406  -40754.21875    170.018524
    2597           0     -2821.733643   1269.955078  -40754.21875    152.821381
    2598           0     -2954.235352    920.576294  -40754.21875    133.243805
    2599           0     -3043.658203    557.773254  -40754.21875    116.271477
    2600           0     -3088.698730    186.833206  -40754.21875    136.514542
    2601           0      -186.834930   3088.698242  -40378.31640    329.059296
    2602           0      -557.777588   3043.657227  -40378.31640    316.400482
    2603           0      -920.582458   2954.233398  -40378.31640    299.830139
    2604           0     -1269.961304   2821.730957  -40378.31640    279.916595
    2605           0     -1600.821533   2648.081787  -40378.31640    257.463409
    2606           0     -1908.339844   2435.817139  -40378.31250    233.765060
    2607           0     -2188.032959   2188.030273  -40378.31250    210.582794
    2608           0     -2435.819824   1908.336182  -40378.31250    189.736221
    2609           0     -2648.084961   1600.816406  -40378.31250    172.086563
    2610           0     -2821.733643   1269.955078  -40378.31250    156.255768
    2611           0     -2954.235352    920.576294  -40378.31250    138.829437
    2612           0     -3043.658203    557.773193  -40378.31250    122.071129
    2613           0     -3088.698730    186.833206  -40378.31250    135.155716
    2614           0      -186.834915   3088.698242  -40002.40625    336.940796
    2615           0      -557.777588   3043.657227  -40002.41015    323.717163
    2616           0      -920.582397   2954.233398  -40002.41015    306.219299
    2617           0     -1269.961304   2821.730957  -40002.40625    285.092621
    2618           0     -1600.821533   2648.081787  -40002.40625    261.356903
    2619           0     -1908.339844   2435.817139  -40002.40625    236.514496
    2620           0     -2188.032959   2188.030273  -40002.40625    212.538467
    2621           0     -2435.819824   1908.336182  -40002.40625    191.454788
    2622           0     -2648.084961   1600.816406  -40002.40625    174.285156
    2623           0     -2821.733643   1269.955078  -40002.40625    159.867691
    2624           0     -2954.235352    920.576172  -40002.40625    144.691788
    2625           0     -3043.658203    557.773132  -40002.40625    128.745941
    2626           0     -3088.698730    186.833206  -40002.40625    135.401733
    2627           0      -186.834885   3088.698242  -39626.50390    344.882446
    2628           0      -557.777466   3043.657227  -39626.50000    331.091919
    2629           0      -920.582336   2954.233398  -39626.50390    312.647003
    2630           0     -1269.961182   2821.730957  -39626.50390    290.305969
    2631           0     -1600.821533   2648.081787  -39626.50390    265.267059
    2632           0     -1908.339844   2435.817139  -39626.50390    239.281372
    2633           0     -2188.032959   2188.030273  -39626.50390    214.537735
    2634           0     -2435.819824   1908.336182  -39626.50390    193.244324
    2635           0     -2648.084961   1600.816406  -39626.50390    176.610764
    2636           0     -2821.733643   1269.955078  -39626.50390    163.648575
    2637           0     -2954.235352    920.576172  -39626.50390    150.792801
    2638           0     -3043.658203    557.773132  -39626.50781    136.184677
    2639           0     -3088.698730    186.833206  -39626.50781    137.401535
    2640           0      -186.834869   3088.698242  -39250.59765    352.885742
    2641           0      -557.777466   3043.657227  -39250.59375    338.518829
    2642           0      -920.582275   2954.233398  -39250.59375    319.096100
    2643           0     -1269.961182   2821.730957  -39250.59765    295.524658
    2644           0     -1600.821533   2648.081787  -39250.59765    269.198059
    2645           0     -1908.339844   2435.817139  -39250.59765    242.054657
    2646           0     -2188.032959   2188.030273  -39250.59765    216.555466
    2647           0     -2435.819824   1908.336182  -39250.59765    195.114716
    2648           0     -2648.084961   1600.816406  -39250.59765    179.061630
    2649           0     -2821.733643   1269.955078  -39250.59765    167.586288
    2650           0     -2954.235352    920.576172  -39250.60156    157.105179
    2651           0     -3043.658203    557.773132  -39250.60156    144.260498
    2652           0     -3088.698730    186.833206  -39250.60156    141.196762
    2653           0      -186.834839   3088.698242  -38874.69921    360.947205
    2654           0      -557.777344   3043.657227  -38874.69531    345.989014
    2655           0      -920.582275   2954.233398  -38874.69531    325.589752
    2656           0     -1269.961182   2821.730957  -38874.69531    300.773163
    2657           0     -1600.821411   2648.081787  -38874.69921    273.137756
    2658           0     -1908.339844   2435.817139  -38874.69921    244.866623
    2659           0     -2188.032959   2188.030273  -38874.69921    218.635956
    2660           0     -2435.819824   1908.336304  -38874.69921    197.058014
    2661           0     -2648.084961   1600.816284  -38874.69921    181.625000
    2662           0     -2821.733643   1269.955078  -38874.69921    171.676956
    2663           0     -2954.235352    920.576172  -38874.69921    163.591141
    2664           0     -3043.658203    557.773132  -38874.69921    152.874695
    2665           0     -3088.698730    186.833206  -38874.69921    146.742325
    2666           0      -186.834839   3088.698242  -38498.80078    369.063324
    2667           0      -557.777344   3043.657227  -38498.80468    353.509674
    2668           0      -920.582153   2954.233398  -38498.80468    332.113037
    2669           0     -1269.961060   2821.730957  -38498.80078    306.041962
    2670           0     -1600.821411   2648.082031  -38498.80078    277.084503
    2671           0     -1908.339600   2435.817383  -38498.80078    247.674072
    2672           0     -2188.032715   2188.030518  -38498.80078    220.756424
    2673           0     -2435.819824   1908.336426  -38498.80078    199.065826
    2674           0     -2648.084961   1600.816284  -38498.79687    184.307068
    2675           0     -2821.733887   1269.954834  -38498.79687    175.901993
    2676           0     -2954.235352    920.576172  -38498.79687    170.235626
    2677           0     -3043.658203    557.773071  -38498.79687    161.905609
    2678           0     -3088.698730    186.833130  -38498.79687    153.921921
    2679           0      -186.834808   3088.698242  -38122.89453    377.233582
    2680           0      -557.777283   3043.657227  -38122.89453    361.071533
    2681           0      -920.582092   2954.233398  -38122.89453    338.673431
    2682           0     -1269.960938   2821.730957  -38122.89453    311.338409
    2683           0     -1600.821289   2648.082031  -38122.89453    281.047089
    2684           0     -1908.339478   2435.817383  -38122.89453    250.522888
    2685           0     -2188.032715   2188.030762  -38122.89453    222.884384
    2686           0     -2435.819824   1908.336426  -38122.89453    201.139206
    2687           0     -2648.084961   1600.816284  -38122.89453    187.094894
    2688           0     -2821.733887   1269.954834  -38122.89453    180.257294
    2689           0     -2954.235352    920.576172  -38122.89062    177.009995
    2690           0     -3043.658203    557.773010  -38122.89062    171.283142
    2691           0     -3088.698730    186.833069  -38122.89062    162.524292
    2692           0      -186.834778   3088.698242  -37746.98828    385.454132
    2693           0      -557.777222   3043.657227  -37746.98828    368.679932
    2694           0      -920.582031   2954.233398  -37746.98828    345.266357
    2695           0     -1269.960938   2821.730957  -37746.98828    316.649445
    2696           0     -1600.821289   2648.082031  -37746.98828    285.045624
    2697           0     -1908.339478   2435.817383  -37746.98828    253.403946
    2698           0     -2188.032715   2188.030762  -37746.98828    225.085236
    2699           0     -2435.819824   1908.336426  -37746.98828    203.287582
    2700           0     -2648.084961   1600.816284  -37746.98828    189.977814
    2701           0     -2821.733887   1269.954834  -37746.98828    184.728638
    2702           0     -2954.235352    920.576172  -37746.98828    183.906906
    2703           0     -3043.658203    557.772949  -37746.98828    180.907974
    2704           0     -3088.698730    186.833069  -37746.98828    172.388321
    2705           0      -186.834778   3088.698242  -37371.08203    393.723846
    2706           0      -557.777222   3043.657227  -37371.07812    376.329712
    2707           0      -920.581970   2954.233398  -37371.08203    351.891663
    2708           0     -1269.960815   2821.730957  -37371.08203    321.997742
    2709           0     -1600.821167   2648.082031  -37371.08203    289.050873
    2710           0     -1908.339478   2435.817383  -37371.08203    256.271240
    2711           0     -2188.032715   2188.030762  -37371.08203    227.310898
    2712           0     -2435.819824   1908.336426  -37371.08203    205.510040
    2713           0     -2648.084961   1600.816284  -37371.08203    192.949097
    2714           0     -2821.733887   1269.954834  -37371.08203    189.316193
    2715           0     -2954.235352    920.576050  -37371.08203    190.899277
    2716           0     -3043.658203    557.772827  -37371.08593    190.746414
    2717           0     -3088.698730    186.833069  -37371.08593    183.202454
    2718           0      -186.834747   3088.698242  -36995.17578    402.036072
    2719           0      -557.777161   3043.657227  -36995.17187    384.020325
    2720           0      -920.581909   2954.233398  -36995.17187    358.542206
    2721           0     -1269.960815   2821.730957  -36995.17578    327.361481
    2722           0     -1600.821045   2648.082031  -36995.17578    293.096405
    2723           0     -1908.339478   2435.817383  -36995.17578    259.202637
    2724           0     -2188.032715   2188.030762  -36995.17968    229.589066
    2725           0     -2435.819824   1908.336426  -36995.17968    207.782272
    2726           0     -2648.084961   1600.816284  -36995.17968    196.015518
    2727           0     -2821.733887   1269.954834  -36995.17968    193.991959
    2728           0     -2954.235352    920.576050  -36995.18359    198.007462
    2729           0     -3043.658203    557.772827  -36995.18359    200.730209
    2730           0     -3088.698730    186.833069  -36995.18359    194.894302
    2731           0      -186.834747   3088.698242  -36619.27734    410.408661
    2732           0      -557.777100   3043.657227  -36619.27343    391.762085
    2733           0      -920.581787   2954.233398  -36619.27343    365.243805
    2734           0     -1269.960693   2821.730957  -36619.27343    332.752472
    2735           0     -1600.821045   2648.082031  -36619.27343    297.143829
    2736           0     -1908.339478   2435.817383  -36619.27734    262.161255
    2737           0     -2188.032715   2188.030762  -36619.27734    231.895172
    2738           0     -2435.819824   1908.336426  -36619.27734    210.127365
    2739           0     -2648.084961   1600.816284  -36619.27734    199.150467
    2740           0     -2821.733887   1269.954834  -36619.27734    198.762741
    2741           0     -2954.235352    920.576050  -36619.27734    205.180725
    2742           0     -3043.658203    557.772827  -36619.27734    210.854324
    2743           0     -3088.698730    186.833069  -36619.27734    207.108307
    2744           0      -186.834717   3088.698242  -36243.37500    418.761322
    2745           0      -557.776978   3043.657471  -36243.37500    399.484863
    2746           0      -920.581787   2954.233643  -36243.37500    371.923096
    2747           0     -1269.960693   2821.731201  -36243.37500    338.127380
    2748           0     -1600.821045   2648.082031  -36243.37500    301.206879
    2749           0     -1908.339478   2435.817383  -36243.37500    265.102448
    2750           0     -2188.032715   2188.030762  -36243.37500    234.237320
    2751           0     -2435.819824   1908.336426  -36243.37500    212.527802
    2752           0     -2648.084961   1600.816284  -36243.37500    202.375519
    2753           0     -2821.733887   1269.954834  -36243.37500    203.607132
    2754           0     -2954.235352    920.576050  -36243.37500    212.470810
    2755           0     -3043.658203    557.772827  -36243.37500    221.083115
    2756           0     -3088.698730    186.833069  -36243.37500    219.881348
    2757           0      -186.834686   3088.698242  -35867.46875    427.401245
    2758           0      -557.776978   3043.657471  -35867.46875    407.475281
    2759           0      -920.581665   2954.233643  -35867.46875    378.838379
    2760           0     -1269.960693   2821.731201  -35867.46875    343.711823
    2761           0     -1600.821045   2648.082031  -35867.46875    305.426544
    2762           0     -1908.339355   2435.817383  -35867.46875    268.197998
    2763           0     -2188.032715   2188.030762  -35867.46875    236.673325
    2764           0     -2435.819824   1908.336426  -35867.46875    215.015060
    2765           0     -2648.084961   1600.816284  -35867.46875    205.669342
    2766           0     -2821.733887   1269.954834  -35867.46875    208.551483
    2767           0     -2954.235352    920.576050  -35867.46875    219.829330
    2768           0     -3043.658203    557.772827  -35867.46875    231.525925
    2769           0     -3088.698730    186.833069  -35867.46875    233.070450
    2770           0      -186.834656   3088.698242  -35491.56250    435.163300
    2771           0      -557.776917   3043.657471  -35491.55859    414.642822
    2772           0      -920.581604   2954.233643  -35491.56250    385.015594
    2773           0     -1269.960449   2821.731201  -35491.56250    348.670349
    2774           0     -1600.820801   2648.082031  -35491.56250    309.139221
    2775           0     -1908.339111   2435.817627  -35491.56250    270.922577
    2776           0     -2188.032715   2188.030762  -35491.56250    238.916824
    2777           0     -2435.819824   1908.336426  -35491.56250    217.378586
    2778           0     -2648.084961   1600.816284  -35491.56250    208.922958
    2779           0     -2821.733887   1269.954834  -35491.56640    213.378510
    2780           0     -2954.235352    920.576050  -35491.56640    227.065216
    2781           0     -3043.658203    557.772766  -35491.56640    241.667908
    2782           0     -3088.698730    186.832993  -35491.57031    246.080566
    2783           0      -186.834656   3088.698242  -35115.65625    446.145050
    2784           0      -557.776855   3043.657471  -35115.65234    424.832245
    2785           0      -920.581543   2954.233643  -35115.65625    393.919861
    2786           0     -1269.960449   2821.731201  -35115.65625    355.960480
    2787           0     -1600.820679   2648.082031  -35115.65625    314.763916
    2788           0     -1908.339111   2435.817627  -35115.65625    275.136230
    2789           0     -2188.032471   2188.030762  -35115.65625    242.253479
    2790           0     -2435.819824   1908.336426  -35115.65625    220.636902
    2791           0     -2648.084961   1600.816284  -35115.66015    212.952362
    2792           0     -2821.733887   1269.954834  -35115.66015    219.151520
    2793           0     -2954.235352    920.575928  -35115.66015    235.403488
    2794           0     -3043.658203    557.772644  -35115.66015    253.564499
    2795           0     -3088.698730    186.832916  -35115.66406    261.389648
    2796           0      -186.834625   3088.698242  -34739.75781    446.915436
    2797           0      -557.776855   3043.657715  -34739.75390    425.407623
    2798           0      -920.581482   2954.233643  -34739.75390    394.108185
    2799           0     -1269.960327   2821.731201  -34739.75781    355.699158
    2800           0     -1600.820679   2648.082031  -34739.75781    314.119965
    2801           0     -1908.339111   2435.817627  -34739.75781    274.345154
    2802           0     -2188.032471   2188.030762  -34739.75781    241.668945
    2803           0     -2435.819824   1908.336426  -34739.75781    220.665436
    2804           0     -2648.084961   1600.816284  -34739.75781    213.995422
    2805           0     -2821.733887   1269.954834  -34739.75781    221.589890
    2806           0     -2954.235352    920.575928  -34739.75781    239.711105
    2807           0     -3043.658203    557.772522  -34739.75781    260.224365
    2808           0     -3088.698730    186.832916  -34739.75781    270.792023
    2809           0      -186.834610   3088.698486  -34363.85937    477.782227
    2810           0      -557.776733   3043.657715  -34363.86328    454.389130
    2811           0      -920.581421   2954.233643  -34363.85937    420.168060
    2812           0     -1269.960327   2821.731201  -34363.85937    378.094788
    2813           0     -1600.820679   2648.082031  -34363.85937    332.622253
    2814           0     -1908.339111   2435.817627  -34363.85937    289.309723
    2815           0     -2188.032471   2188.030762  -34363.85937    254.022903
    2816           0     -2435.819824   1908.336426  -34363.85937    231.782898
    2817           0     -2648.084961   1600.816284  -34363.85937    225.626282
    2818           0     -2821.733887   1269.954834  -34363.85937    235.350174
    2819           0     -2954.235352    920.575928  -34363.85937    257.302032
    2820           0     -3043.658203    557.772522  -34363.85937    282.670441
    2821           0     -3088.698730    186.832916  -34363.85546    298.203400
    2822           0      -186.834595   3088.698486  -33987.95312    436.348663
    2823           0      -557.776672   3043.657715  -33987.95312    415.047333
    2824           0      -920.581360   2954.233643  -33987.95312    383.849426
    2825           0     -1269.960205   2821.731445  -33987.95312    345.547577
    2826           0     -1600.820557   2648.082520  -33987.95312    304.279083
    2827           0     -1908.339111   2435.817871  -33987.95312    265.192871
    2828           0     -2188.032471   2188.030762  -33987.95312    233.684692
    2829           0     -2435.819824   1908.336426  -33987.95312    214.358307
    2830           0     -2648.084961   1600.816284  -33987.95312    209.812973
    2831           0     -2821.733887   1269.954834  -33987.95312    220.064056
    2832           0     -2954.235352    920.575928  -33987.95312    241.655197
    2833           0     -3043.658203    557.772522  -33987.95312    267.474823
    2834           0     -3088.698730    186.832916  -33987.95312    285.130066
    2835           0       186.795288  -3088.703125  -64812.04687     69.875893
    2836           0       557.659729  -3043.681396  -64812.04687     60.074356
    2837           0       920.396851  -2954.293213  -64812.04687     42.240711
    2838           0      1269.717041  -2821.843262  -64812.04687     35.279682
    2839           0      1600.529785  -2648.260498  -64812.04687     62.615604
    2840           0      1908.012695  -2436.076660  -64812.04687    101.565186
    2841           0      2187.682861  -2188.383789  -64812.04687    134.678925
    2842           0      2435.465332  -1908.792969  -64812.04687    151.059387
    2843           0      2647.746582  -1601.379883  -64812.04687    138.866882
    2844           0      2821.433838  -1270.626709  -64812.04687     94.761322
    2845           0       186.795776  -3088.703125  -64436.14062     73.159866
    2846           0       557.661011  -3043.681152  -64436.14062     62.443489
    2847           0       920.398682  -2954.292725  -64436.14062     43.067070
    2848           0      1269.719482  -2821.842285  -64436.14062     35.946621
    2849           0      1600.532349  -2648.258789  -64436.14062     66.746994
    2850           0      1908.015259  -2436.074463  -64436.14062    108.088181
    2851           0      2187.685059  -2188.381836  -64436.14062    142.149796
    2852           0      2435.466797  -1908.791260  -64436.14062    156.580276
    2853           0      2647.747559  -1601.378662  -64436.14062    140.297272
    2854           0      2821.434082  -1270.626343  -64436.14062    101.443024
    2855           0       186.795761  -3088.703125  -64060.24218     63.460468
    2856           0       557.661011  -3043.681152  -64060.24218     54.974659
    2857           0       920.398682  -2954.292725  -64060.24218     39.784920
    2858           0      1269.719482  -2821.842285  -64060.24218     36.411118
    2859           0      1600.532227  -2648.258789  -64060.24218     61.933056
    2860           0      1908.015137  -2436.074463  -64060.24218     96.045670
    2861           0      2187.684814  -2188.381836  -64060.24218    122.429688
    2862           0      2435.466553  -1908.791260  -64060.24218    130.506287
    2863           0      2647.747314  -1601.378662  -64060.24218    115.836693
    2864           0      2821.434082  -1270.626343  -64060.24218    101.471809
    2865           0       186.795761  -3088.703125  -63684.33984     59.651222
    2866           0       557.660950  -3043.681152  -63684.33984     52.126671
    2867           0       920.398621  -2954.292725  -63684.33984     38.981689
    2868           0      1269.719360  -2821.842285  -63684.33984     37.304504
    2869           0      1600.532104  -2648.259033  -63684.33984     61.122311
    2870           0      1908.015015  -2436.074463  -63684.33984     92.181778
    2871           0      2187.684814  -2188.381836  -63684.33984    114.793922
    2872           0      2435.466309  -1908.791260  -63684.33984    119.613640
    2873           0      2647.747314  -1601.378662  -63684.33984    105.312798
    2874           0      2821.434082  -1270.626343  -63684.33984    106.678192
    2875           0       186.795746  -3088.703125  -63308.43359     53.538101
    2876           0       557.660889  -3043.681152  -63308.43359     47.547684
    2877           0       920.398560  -2954.292725  -63308.43359     37.347874
    2878           0      1269.719238  -2821.842529  -63308.43359     38.033165
    2879           0      1600.531982  -2648.259277  -63308.43359     59.251518
    2880           0      1908.015015  -2436.074707  -63308.43359     85.553673
    2881           0      2187.684570  -2188.381836  -63308.43359    102.970230
    2882           0      2435.466309  -1908.791260  -63308.43359    102.575134
    2883           0      2647.747314  -1601.378662  -63308.43359     92.012039
    2884           0      2821.434082  -1270.626343  -63308.43359    113.033356
    2885           0       186.795731  -3088.703125  -62932.53125     48.241749
    2886           0       557.660889  -3043.681152  -62932.53125     43.738445
    2887           0       920.398560  -2954.292969  -62932.53125     36.312336
    2888           0      1269.719238  -2821.842529  -62932.53125     38.936470
    2889           0      1600.531982  -2648.259277  -62932.53125     57.832371
    2890           0      1908.015015  -2436.074707  -62932.53125     80.048691
    2891           0      2187.684570  -2188.381836  -62932.53125     92.656853
    2892           0      2435.466309  -1908.791382  -62932.53125     88.300667
    2893           0      2647.747314  -1601.378906  -62932.53125     86.004196
    2894           0      2821.434082  -1270.626343  -62932.53125    121.674118
    2895           0       186.795715  -3088.703125  -62556.62500     42.716202
    2896           0       557.660889  -3043.681152  -62556.62500     39.877827
    2897           0       920.398499  -2954.292969  -62556.62500     35.408115
    2898           0      1269.719238  -2821.842529  -62556.62500     39.861076
    2899           0      1600.531982  -2648.259277  -62556.62500     56.536381
    2900           0      1908.015015  -2436.074707  -62556.62500     74.530617
    2901           0      2187.684570  -2188.381836  -62556.62500     81.942215
    2902           0      2435.466309  -1908.791382  -62556.62500     73.885696
    2903           0      2647.747314  -1601.378906  -62556.62500     84.334808
    2904           0      2821.434082  -1270.626465  -62556.62500    130.440659
    2905           0       186.795700  -3088.703125  -62180.72656     37.330471
    2906           0       557.660828  -3043.681152  -62180.72656     36.326527
    2907           0       920.398438  -2954.292969  -62180.72656     34.842319
    2908           0      1269.719238  -2821.842529  -62180.72656     40.876141
    2909           0      1600.531982  -2648.259277  -62180.72656     55.440441
    2910           0      1908.014893  -2436.074707  -62180.72656     69.301750
    2911           0      2187.684570  -2188.382080  -62180.72656     71.233780
    2912           0      2435.466309  -1908.791504  -62180.72656     61.442760
    2913           0      2647.747314  -1601.378906  -62180.72656     88.185059
    2914           0      2821.434082  -1270.626465  -62180.72656    138.859787
    2915           0       186.795685  -3088.703125  -61804.82421     32.054531
    2916           0       557.660767  -3043.681152  -61804.82421     33.102066
    2917           0       920.398376  -2954.292969  -61804.82421     34.599983
    2918           0      1269.719238  -2821.842529  -61804.82421     41.960529
    2919           0      1600.531860  -2648.259277  -61804.82421     54.594872
    2920           0      1908.014893  -2436.074707  -61804.82421     64.267532
    2921           0      2187.684570  -2188.382080  -61804.82421     60.574692
    2922           0      2435.466309  -1908.791504  -61804.82421     51.741737
    2923           0      2647.747314  -1601.378906  -61804.82421     95.394867
    2924           0      2821.434082  -1270.626465  -61804.82421    146.169601
    2925           0       186.795670  -3088.703125  -61428.91796     27.018038
    2926           0       557.660706  -3043.681152  -61428.91796     30.361553
    2927           0       920.398315  -2954.292969  -61428.91796     34.711266
    2928           0      1269.718994  -2821.842529  -61428.91796     43.156765
    2929           0      1600.531738  -2648.259277  -61428.91796     53.967918
    2930           0      1908.014648  -2436.074707  -61428.91796     59.465549
    2931           0      2187.684570  -2188.382080  -61428.91796     50.001926
    2932           0      2435.466309  -1908.791504  -61428.91796     46.582176
    2933           0      2647.747314  -1601.378906  -61428.91796    104.749893
    2934           0      2821.434082  -1270.626465  -61428.91796    152.160324
    2935           0       186.795654  -3088.703125  -61053.01171     22.420055
    2936           0       557.660706  -3043.681152  -61053.01171     28.261412
    2937           0       920.398315  -2954.292969  -61053.01171     35.196621
    2938           0      1269.718994  -2821.842529  -61053.01171     44.457291
    2939           0      1600.531738  -2648.259277  -61053.01171     53.576462
    2940           0      1908.014648  -2436.074707  -61053.01171     54.902386
    2941           0      2187.684570  -2188.382324  -61053.01171     39.860252
    2942           0      2435.466309  -1908.791748  -61053.01171     47.037464
    2943           0      2647.747314  -1601.378906  -61053.01171    114.918083
    2944           0      2821.434082  -1270.626465  -61053.01171    156.699707
    2945           0       186.795639  -3088.703125  -60677.10937     18.629210
    2946           0       557.660706  -3043.681152  -60677.10937     26.980722
    2947           0       920.398315  -2954.292969  -60677.10937     36.054432
    2948           0      1269.718872  -2821.842529  -60677.10937     45.885334
    2949           0      1600.531616  -2648.259277  -60677.10937     53.380070
    2950           0      1908.014648  -2436.075195  -60677.10937     50.667576
    2951           0      2187.684570  -2188.382324  -60677.10937     30.579397
    2952           0      2435.466309  -1908.791748  -60677.10937     52.489902
    2953           0      2647.747070  -1601.379028  -60677.10937    125.206505
    2954           0      2821.434082  -1270.626465  -60677.10937    159.826385
    2955           0       186.795639  -3088.703125  -60301.20312     16.272833
    2956           0       557.660645  -3043.681152  -60301.20312     26.656712
    2957           0       920.398193  -2954.292969  -60301.20312     37.288914
    2958           0      1269.718872  -2821.842529  -60301.20312     47.425079
    2959           0      1600.531494  -2648.259277  -60301.20312     53.371975
    2960           0      1908.014648  -2436.075195  -60301.20312     46.830997
    2961           0      2187.684326  -2188.382324  -60301.20312     23.352976
    2962           0      2435.466309  -1908.791748  -60301.20312     61.150280
    2963           0      2647.747070  -1601.379028  -60301.20312    135.125809
    2964           0      2821.434082  -1270.626465  -60301.20312    161.636627
    2965           0       186.795639  -3088.703125  -59925.29687     16.034708
    2966           0       557.660645  -3043.681152  -59925.29687     27.351458
    2967           0       920.398193  -2954.292969  -59925.29687     38.877464
    2968           0      1269.718750  -2821.842529  -59925.29687     49.078743
    2969           0      1600.531494  -2648.259277  -59925.29687     53.514671
    2970           0      1908.014404  -2436.075195  -59925.29687     43.535370
    2971           0      2187.684326  -2188.382324  -59925.29687     20.313839
    2972           0      2435.466309  -1908.791748  -59925.29687     71.418839
    2973           0      2647.747070  -1601.379028  -59925.29687    144.448990
    2974           0      2821.434082  -1270.626465  -59925.29687    162.270782
    2975           0       186.795624  -3088.703125  -59549.39843     18.034651
    2976           0       557.660645  -3043.681152  -59549.39843     29.009193
    2977           0       920.398193  -2954.292969  -59549.39843     40.801353
    2978           0      1269.718750  -2821.842529  -59549.39843     50.822037
    2979           0      1600.531494  -2648.259277  -59549.39843     53.791943
    2980           0      1908.014404  -2436.075195  -59549.39843     40.906258
    2981           0      2187.684326  -2188.382324  -59549.39843     22.991291
    2982           0      2435.466309  -1908.791748  -59549.39843     82.308685
    2983           0      2647.747070  -1601.379028  -59549.39843    153.044312
    2984           0      2821.434082  -1270.626465  -59549.39843    161.887207
    2985           0       186.795609  -3088.703125  -59173.49609     21.681585
    2986           0       557.660583  -3043.681152  -59173.49609     31.500534
    2987           0       920.398010  -2954.292969  -59173.49609     43.022396
    2988           0      1269.718750  -2821.842529  -59173.49609     52.641598
    2989           0      1600.531372  -2648.259521  -59173.49609     54.169579
    2990           0      1908.014404  -2436.075195  -59173.49609     39.095688
    2991           0      2187.684326  -2188.382324  -59173.49609     29.614655
    2992           0      2435.466309  -1908.791748  -59173.49609     93.261925
    2993           0      2647.747070  -1601.379150  -59173.49609    160.875427
    2994           0      2821.434082  -1270.626465  -59173.49609    160.647430
    2995           0       186.795593  -3088.703125  -58797.58984     26.316280
    2996           0       557.660522  -3043.681152  -58797.58984     34.657990
    2997           0       920.398010  -2954.292969  -58797.58984     45.506275
    2998           0      1269.718750  -2821.842529  -58797.58984     54.509087
    2999           0      1600.531372  -2648.259521  -58797.58984     54.630512
    3000           0      1908.014404  -2436.075195  -58797.58984     38.196709
    3001           0      2187.684082  -2188.382324  -58797.58984     37.933403
    3002           0      2435.466309  -1908.791870  -58797.58984    103.973450
    3003           0      2647.747070  -1601.379150  -58797.58984    167.942764
    3004           0      2821.434082  -1270.626465  -58797.58984    158.709152
    3005           0       186.795578  -3088.703125  -58421.68750     31.514448
    3006           0       557.660522  -3043.681152  -58421.68750     38.328903
    3007           0       920.397949  -2954.292969  -58421.68750     48.208679
    3008           0      1269.718506  -2821.842773  -58421.68750     56.405254
    3009           0      1600.531250  -2648.259766  -58421.68750     55.145550
    3010           0      1908.014404  -2436.075195  -58421.68750     38.251640
    3011           0      2187.684082  -2188.382568  -58421.68750     46.808636
    3012           0      2435.466064  -1908.791992  -58421.68750    114.271461
    3013           0      2647.747070  -1601.379272  -58421.68750    174.279587
    3014           0      2821.434082  -1270.626465  -58421.68750    156.219406
    3015           0       186.795578  -3088.703125  -58045.78125     37.046375
    3016           0       557.660461  -3043.681152  -58045.78125     42.381794
    3017           0       920.397949  -2954.292969  -58045.78125     51.090584
    3018           0      1269.718506  -2821.842773  -58045.78125     58.302742
    3019           0      1600.531250  -2648.259766  -58045.78125     55.698250
    3020           0      1908.014160  -2436.075439  -58045.78125     39.204231
    3021           0      2187.684082  -2188.382568  -58045.78125     55.752071
    3022           0      2435.466064  -1908.791992  -58045.78125    124.061455
    3023           0      2647.747070  -1601.379272  -58045.78125    179.931656
    3024           0      2821.434082  -1270.626465  -58045.78125    153.312881
    3025           0       186.795563  -3088.703125  -57669.87890     42.783318
    3026           0       557.660400  -3043.681152  -57669.87890     46.717339
    3027           0       920.397888  -2954.292969  -57669.87890     54.109818
    3028           0      1269.718384  -2821.842773  -57669.87890     60.181786
    3029           0      1600.531006  -2648.259766  -57669.87890     56.266235
    3030           0      1908.014038  -2436.075684  -57669.87890     40.933552
    3031           0      2187.683838  -2188.382813  -57669.87890     64.526535
    3032           0      2435.465820  -1908.791992  -57669.87890    133.293640
    3033           0      2647.747070  -1601.379272  -57669.87890    184.953903
    3034           0      2821.434082  -1270.626465  -57669.87890    150.110291
    3035           0       186.795547  -3088.703125  -57293.97656     48.650955
    3036           0       557.660400  -3043.681396  -57293.97656     51.255390
    3037           0       920.397827  -2954.292969  -57293.97656     57.230938
    3038           0      1269.718384  -2821.842773  -57293.97656     62.021194
    3039           0      1600.531006  -2648.259766  -57293.97656     56.835258
    3040           0      1908.014038  -2436.075684  -57293.97656     43.268784
    3041           0      2187.683838  -2188.382813  -57293.97656     73.007607
    3042           0      2435.465820  -1908.791992  -57293.97656    141.945374
    3043           0      2647.747070  -1601.379395  -57293.97656    189.403534
    3044           0      2821.434082  -1270.626465  -57293.97656    146.718277
    3045           0       186.795532  -3088.703125  -56918.07421     54.600365
    3046           0       557.660400  -3043.681396  -56918.07421     55.936314
    3047           0       920.397827  -2954.292969  -56918.07421     60.418533
    3048           0      1269.718384  -2821.842773  -56918.07421     63.805820
    3049           0      1600.531006  -2648.259766  -56918.07421     57.388268
    3050           0      1908.014038  -2436.075684  -56918.07421     46.037899
    3051           0      2187.683838  -2188.382813  -56918.07421     81.119118
    3052           0      2435.465820  -1908.791992  -56918.07421    150.011765
    3053           0      2647.747070  -1601.379395  -56918.07421    193.337708
    3054           0      2821.434082  -1270.626465  -56918.07421    143.230347
    3055           0       186.795517  -3088.703125  -56542.16796     60.597328
    3056           0       557.660339  -3043.681396  -56542.16796     60.711571
    3057           0       920.397705  -2954.292969  -56542.16796     63.644581
    3058           0      1269.718262  -2821.842773  -56542.16796     65.521355
    3059           0      1600.531006  -2648.259766  -56542.16796     57.913025
    3060           0      1908.014038  -2436.075684  -56542.16796     49.078831
    3061           0      2187.683838  -2188.382813  -56542.16796     88.814934
    3062           0      2435.465820  -1908.791992  -56542.16796    157.498535
    3063           0      2647.747070  -1601.379395  -56542.16796    196.811325
    3064           0      2821.434082  -1270.626465  -56542.16796    139.727081
    3065           0       186.795502  -3088.703125  -56166.26562     66.614418
    3066           0       557.660339  -3043.681396  -56166.26562     65.543091
    3067           0       920.397705  -2954.292969  -56166.26562     66.882881
    3068           0      1269.718262  -2821.842773  -56166.26562     67.159889
    3069           0      1600.531006  -2648.259766  -56166.26562     58.397224
    3070           0      1908.013916  -2436.075684  -56166.26562     52.257324
    3071           0      2187.683838  -2188.382813  -56166.26562     96.063194
    3072           0      2435.465820  -1908.791992  -56166.26562    164.418869
    3073           0      2647.747070  -1601.379395  -56166.26562    199.875916
    3074           0      2821.434082  -1270.626465  -56166.26562    136.277695
    3075           0       186.795486  -3088.703125  -55790.35937     72.628960
    3076           0       557.660278  -3043.681396  -55790.35937     70.399063
    3077           0       920.397705  -2954.292969  -55790.35937     70.113098
    3078           0      1269.718140  -2821.842773  -55790.35937     68.715050
    3079           0      1600.530884  -2648.259766  -55790.35937     58.830410
    3080           0      1908.013794  -2436.075684  -55790.35937     55.460838
    3081           0      2187.683594  -2188.382813  -55790.35937    102.845627
    3082           0      2435.465820  -1908.792236  -55790.35937    170.789948
    3083           0      2647.747070  -1601.379395  -55790.35937    202.579102
    3084           0      2821.434082  -1270.626465  -55790.35937    132.940811
    3085           0       186.795486  -3088.703125  -55414.45312     78.619781
    3086           0       557.660278  -3043.681396  -55414.45312     75.253647
    3087           0       920.397583  -2954.292969  -55414.45312     73.318695
    3088           0      1269.718018  -2821.842773  -55414.45312     70.185440
    3089           0      1600.530762  -2648.260010  -55414.45312     59.203087
    3090           0      1908.013672  -2436.075684  -55414.45312     58.602688
    3091           0      2187.683594  -2188.382813  -55414.45312    109.147453
    3092           0      2435.465820  -1908.792236  -55414.45312    176.631271
    3093           0      2647.747070  -1601.379395  -55414.45312    204.964508
    3094           0      2821.434082  -1270.626465  -55414.45312    129.765610
    3095           0       186.795486  -3088.703125  -55038.55468     84.567818
    3096           0       557.660217  -3043.681396  -55038.55468     80.084816
    3097           0       920.397583  -2954.292969  -55038.55468     76.487877
    3098           0      1269.718018  -2821.842773  -55038.55468     71.571609
    3099           0      1600.530640  -2648.260010  -55038.55468     59.506653
    3100           0      1908.013672  -2436.075684  -55038.55468     61.611450
    3101           0      2187.683594  -2188.382813  -55038.55468    114.965088
    3102           0      2435.465820  -1908.792236  -55038.55468    181.965668
    3103           0      2647.747070  -1601.379395  -55038.55468    207.071213
    3104           0      2821.434082  -1270.626465  -55038.55468    126.793030
    3105           0       186.795471  -3088.703125  -54662.65234     90.454247
    3106           0       557.660217  -3043.681396  -54662.65234     84.874664
    3107           0       920.397461  -2954.292969  -54662.65234     79.611382
    3108           0      1269.717896  -2821.842773  -54662.65234     72.880615
    3109           0      1600.530640  -2648.260010  -54662.65234     59.733265
    3110           0      1908.013672  -2436.075684  -54662.65234     64.431648
    3111           0      2187.683594  -2188.382813  -54662.65234    120.292023
    3112           0      2435.465820  -1908.792358  -54662.65234    186.812759
    3113           0      2647.747070  -1601.379395  -54662.65234    208.932266
    3114           0      2821.434082  -1270.626465  -54662.65234    124.057053
    3115           0       186.795456  -3088.703125  -54286.74609     96.261292
    3116           0       557.660156  -3043.681396  -54286.74609     89.607170
    3117           0       920.397400  -2954.292969  -54286.74609     82.685326
    3118           0      1269.717896  -2821.842773  -54286.74609     74.117874
    3119           0      1600.530518  -2648.260010  -54286.74609     59.877460
    3120           0      1908.013550  -2436.075684  -54286.74609     67.019203
    3121           0      2187.683594  -2188.383057  -54286.74609    125.129066
    3122           0      2435.465820  -1908.792358  -54286.74609    191.194321
    3123           0      2647.747070  -1601.379517  -54286.74609    210.581467
    3124           0      2821.434082  -1270.626465  -54286.74609    121.583153
    3125           0       186.795441  -3088.703125  -53910.84375    101.972466
    3126           0       557.660156  -3043.681396  -53910.84375     94.270035
    3127           0       920.397400  -2954.292969  -53910.84375     85.707787
    3128           0      1269.717773  -2821.843018  -53910.84375     75.294876
    3129           0      1600.530518  -2648.260254  -53910.84375     59.935829
    3130           0      1908.013550  -2436.075928  -53910.84375     69.338608
    3131           0      2187.683594  -2188.383301  -53910.84375    129.480133
    3132           0      2435.465576  -1908.792480  -53910.84375    195.131882
    3133           0      2647.747070  -1601.379639  -53910.84375    212.047775
    3134           0      2821.434082  -1270.626587  -53910.84375    119.392723
    3135           0       186.795425  -3088.703125  -53534.93750    107.570953
    3136           0       557.660095  -3043.681396  -53534.93750     98.851349
    3137           0       920.397400  -2954.293213  -53534.93750     88.678802
    3138           0      1269.717773  -2821.843018  -53534.93750     76.424469
    3139           0      1600.530396  -2648.260254  -53534.93750     59.904751
    3140           0      1908.013428  -2436.076172  -53534.93750     71.365234
    3141           0      2187.683594  -2188.383301  -53534.93750    133.347000
    3142           0      2435.465576  -1908.792480  -53534.93750    198.642044
    3143           0      2647.746826  -1601.379639  -53534.93750    213.352814
    3144           0      2821.434082  -1270.626709  -53534.93750    117.501259
    3145           0       186.795410  -3088.703125  -53159.03906    113.040237
    3146           0       557.660034  -3043.681396  -53159.03906    103.341461
    3147           0       920.397400  -2954.293213  -53159.03906     91.601379
    3148           0      1269.717773  -2821.843018  -53159.03906     77.521286
    3149           0      1600.530396  -2648.260254  -53159.03906     59.786430
    3150           0      1908.013428  -2436.076172  -53159.03906     73.073486
    3151           0      2187.683594  -2188.383301  -53159.03906    136.733246
    3152           0      2435.465576  -1908.792480  -53159.03906    201.744064
    3153           0      2647.746826  -1601.379639  -53159.03906    214.518250
    3154           0      2821.434082  -1270.626709  -53159.03906    115.919502
    3155           0       186.795395  -3088.703125  -52783.13281    118.366722
    3156           0       557.660034  -3043.681396  -52783.13281    107.732956
    3157           0       920.397339  -2954.293213  -52783.13281     94.480522
    3158           0      1269.717773  -2821.843018  -52783.13281     78.602592
    3159           0      1600.530273  -2648.260254  -52783.13281     59.582005
    3160           0      1908.013306  -2436.076172  -52783.13281     74.446899
    3161           0      2187.683350  -2188.383301  -52783.13281    139.646500
    3162           0      2435.465576  -1908.792480  -52783.13281    204.455170
    3163           0      2647.746826  -1601.379639  -52783.13281    215.563065
    3164           0      2821.434082  -1270.626709  -52783.13281    114.654823
    3165           0       186.795395  -3088.703125  -52407.23046    123.537376
    3166           0       557.659973  -3043.681396  -52407.23046    112.019196
    3167           0       920.397217  -2954.293213  -52407.23046     97.322395
    3168           0      1269.717651  -2821.843018  -52407.23046     79.686958
    3169           0      1600.530273  -2648.260254  -52407.23046     59.297207
    3170           0      1908.013062  -2436.076172  -52407.23046     75.475540
    3171           0      2187.683350  -2188.383301  -52407.23046    142.092972
    3172           0      2435.465576  -1908.792725  -52407.23046    206.792053
    3173           0      2647.746826  -1601.379761  -52407.23046    216.502380
    3174           0      2821.434082  -1270.626709  -52407.23046    113.709457
    3175           0       186.795380  -3088.703125  -52031.32812    128.539673
    3176           0       557.659973  -3043.681396  -52031.32812    116.195587
    3177           0       920.397217  -2954.293213  -52031.32812    100.133575
    3178           0      1269.717529  -2821.843018  -52031.32812     80.793732
    3179           0      1600.530151  -2648.260254  -52031.32812     58.944584
    3180           0      1908.013062  -2436.076172  -52031.32812     76.147774
    3181           0      2187.683105  -2188.383301  -52031.32812    144.076782
    3182           0      2435.465576  -1908.792725  -52031.32812    208.767624
    3183           0      2647.746826  -1601.379761  -52031.32812    217.350403
    3184           0      2821.434082  -1270.626709  -52031.32812    113.084076
    3185           0       186.795364  -3088.703125  -51655.42187    133.363678
    3186           0       557.659973  -3043.681396  -51655.42187    120.257103
    3187           0       920.397095  -2954.293213  -51655.42187    102.922157
    3188           0      1269.717529  -2821.843018  -51655.42187     81.943344
    3189           0      1600.530029  -2648.260254  -51655.42187     58.538250
    3190           0      1908.013062  -2436.076172  -51655.42187     76.459366
    3191           0      2187.683105  -2188.383301  -51655.42187    145.606598
    3192           0      2435.465332  -1908.792725  -51655.42187    210.394363
    3193           0      2647.746826  -1601.379761  -51655.42187    218.118561
    3194           0      2821.434082  -1270.626709  -51655.42187    112.776299
    3195           0       186.795349  -3088.703125  -51279.51562    137.999802
    3196           0       557.659912  -3043.681396  -51279.51562    124.201477
    3197           0       920.397095  -2954.293213  -51279.51562    105.695168
    3198           0      1269.717407  -2821.843018  -51279.51562     83.156654
    3199           0      1600.530029  -2648.260254  -51279.51562     58.099697
    3200           0      1908.012939  -2436.076416  -51279.51562     76.406311
    3201           0      2187.683105  -2188.383545  -51279.51562    146.688126
    3202           0      2435.465332  -1908.792725  -51279.51562    211.683456
    3203           0      2647.746826  -1601.379761  -51279.51562    218.816696
    3204           0      2821.434082  -1270.626709  -51279.51562    112.781960
    3205           0       186.795334  -3088.703125  -50903.61718    142.440613
    3206           0       557.659912  -3043.681396  -50903.61718    128.026001
    3207           0       920.397034  -2954.293213  -50903.61718    108.460960
    3208           0      1269.717285  -2821.843262  -50903.61718     84.455215
    3209           0      1600.530029  -2648.260498  -50903.61718     57.655159
    3210           0      1908.012939  -2436.076416  -50903.61718     75.990196
    3211           0      2187.683105  -2188.383545  -50903.61718    147.327896
    3212           0      2435.465332  -1908.792725  -50903.61718    212.644653
    3213           0      2647.746826  -1601.379883  -50903.61718    219.452744
    3214           0      2821.434082  -1270.626709  -50903.61718    113.095398
    3215           0       186.795334  -3088.703125  -50527.71093    146.680420
    3216           0       557.659912  -3043.681396  -50527.71093    131.729080
    3217           0       920.396973  -2954.293213  -50527.71093    111.225731
    3218           0      1269.717285  -2821.843262  -50527.71093     85.859383
    3219           0      1600.530029  -2648.260498  -50527.71093     57.238449
    3220           0      1908.012939  -2436.076416  -50527.71093     75.212662
    3221           0      2187.682861  -2188.383789  -50527.71093    147.532608
    3222           0      2435.465332  -1908.792847  -50527.71093    213.286148
    3223           0      2647.746582  -1601.379883  -50527.71093    220.033340
    3224           0      2821.434082  -1270.626709  -50527.71093    113.709961
    3225           0       186.795319  -3088.703125  -50151.80859    150.714874
    3226           0       557.659790  -3043.681396  -50151.80859    135.310623
    3227           0       920.396973  -2954.293213  -50151.80859    113.996780
    3228           0      1269.717285  -2821.843262  -50151.80859     87.388367
    3229           0      1600.529907  -2648.260498  -50151.80859     56.888897
    3230           0      1908.012695  -2436.076416  -50151.80859     74.083130
    3231           0      2187.682861  -2188.383789  -50151.80859    147.307907
    3232           0      2435.465332  -1908.792847  -50151.80859    213.615067
    3233           0      2647.746582  -1601.379883  -50151.80859    220.563721
    3234           0      2821.434082  -1270.626709  -50151.80859    114.618355
    3235           0       186.795303  -3088.703125  -49775.90234    154.541321
    3236           0       557.659729  -3043.681396  -49775.90234    138.770599
    3237           0       920.396851  -2954.293213  -49775.90234    116.780136
    3238           0      1269.717163  -2821.843262  -49775.90234     89.061638
    3239           0      1600.529785  -2648.260498  -49775.90234     56.655472
    3240           0      1908.012695  -2436.076416  -49775.90234     72.609856
    3241           0      2187.682861  -2188.383789  -49775.90234    146.660675
    3242           0      2435.465332  -1908.792847  -49775.90234    213.637329
    3243           0      2647.746582  -1601.379883  -49775.90234    221.047485
    3244           0      2821.434082  -1270.626709  -49775.90234    115.813202
    3245           0       186.795303  -3088.703125  -49400.00000    158.159180
    3246           0       557.659729  -3043.681396  -49400.00000    142.109818
    3247           0       920.396790  -2954.293213  -49400.00000    119.579849
    3248           0      1269.717041  -2821.843262  -49400.00000     90.895164
    3249           0      1600.529785  -2648.260498  -49400.00000     56.591324
    3250           0      1908.012695  -2436.076660  -49400.00000     70.811714
    3251           0      2187.682861  -2188.383789  -49400.00000    145.596405
    3252           0      2435.465332  -1908.792969  -49400.00000    213.357407
    3253           0      2647.746582  -1601.379883  -49400.00000    221.487595
    3254           0      2821.434082  -1270.626709  -49400.00000    117.286911
    3255           0       186.795288  -3088.703125  -49024.09765    161.568848
    3256           0       557.659729  -3043.681396  -49024.09765    145.329224
    3257           0       920.396790  -2954.293457  -49024.09765    122.401085
    3258           0      1269.717041  -2821.843262  -49024.09765     92.904335
    3259           0      1600.529663  -2648.260742  -49024.09765     56.753796
    3260           0      1908.012573  -2436.076660  -49024.09765     68.707329
    3261           0      2187.682617  -2188.383789  -49024.09765    144.123672
    3262           0      2435.465332  -1908.792969  -49024.09765    212.779205
    3263           0      2647.746582  -1601.380005  -49024.09765    221.884857
    3264           0      2821.434082  -1270.626709  -49024.09765    119.032738
    3265           0       186.795273  -3088.703125  -48648.19140    164.772934
    3266           0       557.659668  -3043.681641  -48648.19140    148.431290
    3267           0       920.396790  -2954.293457  -48648.19140    125.246315
    3268           0      1269.717041  -2821.843262  -48648.19140     95.100433
    3269           0      1600.529541  -2648.260742  -48648.19140     57.205364
    3270           0      1908.012573  -2436.076660  -48648.19140     66.335136
    3271           0      2187.682617  -2188.383789  -48648.19140    142.248062
    3272           0      2435.465332  -1908.792969  -48648.19140    211.903931
    3273           0      2647.746582  -1601.380005  -48648.19140    222.240555
    3274           0      2821.434082  -1270.626709  -48648.19140    121.043770
    3275           0       186.795258  -3088.703125  -48272.28906    167.775436
    3276           0       557.659668  -3043.681641  -48272.28906    151.417908
    3277           0       920.396729  -2954.293457  -48272.28906    128.118179
    3278           0      1269.717041  -2821.843262  -48272.28906     97.493210
    3279           0      1600.529541  -2648.260742  -48272.28906     58.006527
    3280           0      1908.012451  -2436.076660  -48272.28906     63.727180
    3281           0      2187.682617  -2188.383789  -48272.28906    139.982346
    3282           0      2435.465332  -1908.792969  -48272.28906    210.733017
    3283           0      2647.746582  -1601.380005  -48272.28906    222.554382
    3284           0      2821.434082  -1270.626709  -48272.28906    123.314491
    3285           0       186.795242  -3088.703125  -47896.38671    170.580887
    3286           0       557.659607  -3043.681641  -47896.38671    154.293442
    3287           0       920.396606  -2954.293457  -47896.38671    131.016495
    3288           0      1269.716919  -2821.843262  -47896.38671    100.089088
    3289           0      1600.529541  -2648.260742  -47896.38671     59.216267
    3290           0      1908.012451  -2436.076660  -47896.38671     60.948349
    3291           0      2187.682617  -2188.384033  -47896.38671    137.327408
    3292           0      2435.465088  -1908.793213  -47896.38671    209.270676
    3293           0      2647.746582  -1601.380005  -47896.38671    222.822739
    3294           0      2821.434082  -1270.626709  -47896.38671    125.835892
    3295           0       186.795227  -3088.703125  -47520.48437    173.197754
    3296           0       557.659607  -3043.681641  -47520.48437    157.059525
    3297           0       920.396606  -2954.293457  -47520.48437    133.943390
    3298           0      1269.716797  -2821.843750  -47520.48437    102.892494
    3299           0      1600.529541  -2648.260742  -47520.48437     60.875427
    3300           0      1908.012451  -2436.076660  -47520.48437     58.073597
    3301           0      2187.682617  -2188.384033  -47520.48437    134.309586
    3302           0      2435.464844  -1908.793213  -47520.48437    207.515305
    3303           0      2647.746582  -1601.380127  -47520.48437    223.040207
    3304           0      2821.434082  -1270.626709  -47520.48437    128.609772
    3305           0       186.795212  -3088.703125  -47144.57812    175.633331
    3306           0       557.659546  -3043.681641  -47144.57812    159.721634
    3307           0       920.396606  -2954.293457  -47144.57812    136.893799
    3308           0      1269.716797  -2821.843750  -47144.57812    105.908699
    3309           0      1600.529419  -2648.260742  -47144.57812     63.022896
    3310           0      1908.012329  -2436.076660  -47144.57812     55.204758
    3311           0      2187.682617  -2188.384033  -47144.57812    130.926987
    3312           0      2435.464844  -1908.793213  -47144.57812    205.458267
    3313           0      2647.746582  -1601.380127  -47144.57812    223.210190
    3314           0      2821.434082  -1270.626709  -47144.57812    131.629532
    3315           0       186.795197  -3088.703125  -46768.67187    177.898071
    3316           0       557.659546  -3043.681641  -46768.67187    162.283325
    3317           0       920.396545  -2954.293457  -46768.67187    139.871155
    3318           0      1269.716797  -2821.843750  -46768.67187    109.124863
    3319           0      1600.529297  -2648.260742  -46768.67187     65.699272
    3320           0      1908.012207  -2436.076904  -46768.67187     52.474274
    3321           0      2187.682617  -2188.384033  -46768.67187    127.209808
    3322           0      2435.464844  -1908.793213  -46768.67187    203.113846
    3323           0      2647.746582  -1601.380127  -46768.67187    223.336716
    3324           0      2821.434082  -1270.626709  -46768.67187    134.879684
    3325           0       186.795181  -3088.703125  -46392.76953    180.002686
    3326           0       557.659546  -3043.681641  -46392.76953    164.749374
    3327           0       920.396484  -2954.293457  -46392.76953    142.869904
    3328           0      1269.716675  -2821.843750  -46392.76953    112.546364
    3329           0      1600.529175  -2648.260742  -46392.76953     68.891090
    3330           0      1908.012085  -2436.076904  -46392.76953     50.095245
    3331           0      2187.682373  -2188.384277  -46392.76953    123.189835
    3332           0      2435.464844  -1908.793213  -46392.76953    200.471802
    3333           0      2647.746582  -1601.380127  -46392.76953    223.386826
    3334           0      2821.434082  -1270.626709  -46392.76953    138.369934
    3335           0       186.795181  -3088.703125  -46016.86718    181.959076
    3336           0       557.659424  -3043.681641  -46016.86718    167.125610
    3337           0       920.396423  -2954.293457  -46016.86718    145.885880
    3338           0      1269.716553  -2821.843750  -46016.86718    116.166283
    3339           0      1600.529053  -2648.260742  -46016.86718     72.601021
    3340           0      1908.012085  -2436.077148  -46016.86718     48.263081
    3341           0      2187.682373  -2188.384277  -46016.86718    118.893761
    3342           0      2435.464844  -1908.793335  -46016.86718    197.534500
    3343           0      2647.746582  -1601.380249  -46016.86718    223.358078
    3344           0      2821.434082  -1270.626709  -46016.86718    142.092316
    3345           0       186.795181  -3088.703125  -45640.96484    183.780823
    3346           0       557.659424  -3043.681641  -45640.96484    169.416336
    3347           0       920.396362  -2954.293457  -45640.96484    148.920029
    3348           0      1269.716553  -2821.843750  -45640.96484    119.966850
    3349           0      1600.529053  -2648.260742  -45640.96484     76.831215
    3350           0      1908.012085  -2436.077148  -45640.96484     47.240723
    3351           0      2187.682373  -2188.384277  -45640.96484    114.373268
    3352           0      2435.464844  -1908.793457  -45640.96484    194.317093
    3353           0      2647.746582  -1601.380249  -45640.96484    223.250046
    3354           0      2821.434082  -1270.626709  -45640.96484    146.035675
    3355           0       186.795166  -3088.703125  -45265.05859    185.481033
    3356           0       557.659424  -3043.681641  -45265.05859    171.628967
    3357           0       920.396362  -2954.293457  -45265.05859    151.963837
    3358           0      1269.716431  -2821.843750  -45265.05859    123.945389
    3359           0      1600.529053  -2648.260742  -45265.05859     81.548889
    3360           0      1908.011963  -2436.077148  -45265.05859     47.291100
    3361           0      2187.682129  -2188.384521  -45265.05859    109.694969
    3362           0      2435.464844  -1908.793457  -45265.05859    190.801285
    3363           0      2647.746582  -1601.380249  -45265.05859    223.047485
    3364           0      2821.434082  -1270.626709  -45265.05859    150.198807
    3365           0       186.795151  -3088.703125  -44889.15625    187.075790
    3366           0       557.659363  -3043.681641  -44889.15625    173.768631
    3367           0       920.396240  -2954.293457  -44889.15625    155.015472
    3368           0      1269.716431  -2821.843750  -44889.15625    128.086914
    3369           0      1600.528931  -2648.260986  -44889.15625     86.730095
    3370           0      1908.011719  -2436.077148  -44889.15625     48.612625
    3371           0      2187.682129  -2188.384521  -44889.15625    104.936531
    3372           0      2435.464844  -1908.793457  -44889.15625    187.004181
    3373           0      2647.746582  -1601.380249  -44889.15625    222.739548
    3374           0      2821.434082  -1270.626709  -44889.15625    154.570877
    3375           0       186.795135  -3088.703125  -44513.25000    188.579330
    3376           0       557.659302  -3043.681641  -44513.25000    175.842194
    3377           0       920.396179  -2954.293457  -44513.25000    158.070801
    3378           0      1269.716309  -2821.843750  -44513.25000    132.379456
    3379           0      1600.528931  -2648.261230  -44513.25000     92.342445
    3380           0      1908.011719  -2436.077148  -44513.25000     51.311131
    3381           0      2187.682129  -2188.384521  -44513.25000    100.216087
    3382           0      2435.464844  -1908.793457  -44513.25000    182.931030
    3383           0      2647.746582  -1601.380371  -44513.25000    222.309601
    3384           0      2821.433838  -1270.626831  -44513.25000    159.142685
    3385           0       186.795120  -3088.703125  -44137.35156    190.008194
    3386           0       557.659302  -3043.681641  -44137.35156    177.857330
    3387           0       920.396179  -2954.293457  -44137.35156    161.125839
    3388           0      1269.716309  -2821.843750  -44137.35156    136.808121
    3389           0      1600.528809  -2648.261230  -44137.35156     98.350029
    3390           0      1908.011719  -2436.077148  -44137.35156     55.382179
    3391           0      2187.682129  -2188.384521  -44137.35156     95.676613
    3392           0      2435.464844  -1908.793701  -44137.35156    178.599960
    3393           0      2647.746338  -1601.380371  -44137.35156    221.739563
    3394           0      2821.433838  -1270.626831  -44137.35156    163.898376
    3395           0       186.795120  -3088.703125  -43761.44531    191.378204
    3396           0       557.659302  -3043.681641  -43761.44531    179.820663
    3397           0       920.396179  -2954.293457  -43761.44531    164.179291
    3398           0      1269.716309  -2821.843750  -43761.44531    141.360001
    3399           0      1600.528809  -2648.261230  -43761.44531    104.720207
    3400           0      1908.011719  -2436.077148  -43761.44531     60.725941
    3401           0      2187.682129  -2188.384521  -43761.44531     91.510117
    3402           0      2435.464600  -1908.793701  -43761.44531    174.032654
    3403           0      2647.746338  -1601.380371  -43761.44531    221.012772
    3404           0      2821.433838  -1270.626831  -43761.44531    168.824585
    3405           0       186.795105  -3088.703125  -43385.54296    192.705750
    3406           0       557.659241  -3043.681641  -43385.54296    181.740189
    3407           0       920.396118  -2954.293457  -43385.54296    167.225952
    3408           0      1269.716187  -2821.843750  -43385.54296    146.018219
    3409           0      1600.528687  -2648.261230  -43385.54296    111.414528
    3410           0      1908.011719  -2436.077393  -43385.54296     67.203735
    3411           0      2187.681885  -2188.384766  -43385.54296     87.955711
    3412           0      2435.464600  -1908.793701  -43385.54296    169.264008
    3413           0      2647.746338  -1601.380371  -43385.54296    220.107895
    3414           0      2821.433838  -1270.626831  -43385.54296    173.898911
    3415           0       186.795090  -3088.703125  -43009.64062    194.006851
    3416           0       557.659180  -3043.681641  -43009.64062    183.623611
    3417           0       920.395996  -2954.293457  -43009.64062    170.266144
    3418           0      1269.716064  -2821.843750  -43009.64062    150.766357
    3419           0      1600.528564  -2648.261230  -43009.64062    118.398300
    3420           0      1908.011719  -2436.077393  -43009.64062     74.661491
    3421           0      2187.681885  -2188.384766  -43009.64062     85.294312
    3422           0      2435.464600  -1908.793701  -43009.64062    164.342911
    3423           0      2647.746338  -1601.380371  -43009.64062    219.003098
    3424           0      2821.433838  -1270.626831  -43009.64062    179.093369
    3425           0       186.795074  -3088.703125  -42633.73437    195.294067
    3426           0       557.659180  -3043.681641  -42633.73437    185.481628
    3427           0       920.395996  -2954.293457  -42633.73437    173.297348
    3428           0      1269.716064  -2821.843750  -42633.73437    155.594711
    3429           0      1600.528564  -2648.261230  -42633.73437    125.634102
    3430           0      1908.011475  -2436.077637  -42633.73437     82.958397
    3431           0      2187.681641  -2188.384766  -42633.73437     83.841118
    3432           0      2435.464600  -1908.793701  -42633.73437    159.334244
    3433           0      2647.746338  -1601.380615  -42633.73437    217.677216
    3434           0      2821.433838  -1270.626831  -42633.73437    184.376724
    3435           0       186.795059  -3088.703125  -42257.82812    196.583878
    3436           0       557.659119  -3043.681641  -42257.82812    187.322693
    3437           0       920.395996  -2954.293457  -42257.82812    176.318970
    3438           0      1269.716064  -2821.843750  -42257.82812    160.486710
    3439           0      1600.528564  -2648.261230  -42257.82812    133.092422
    3440           0      1908.011475  -2436.077637  -42257.82812     91.971695
    3441           0      2187.681641  -2188.384766  -42257.82812     83.892212
    3442           0      2435.464600  -1908.793823  -42257.82812    154.330536
    3443           0      2647.746338  -1601.380615  -42257.82812    216.108704
    3444           0      2821.433838  -1270.626831  -42257.82812    189.710037
    3445           0       186.795059  -3088.703125  -41881.92968    197.888657
    3446           0       557.659119  -3043.681641  -41881.92968    189.155396
    3447           0       920.395935  -2954.293457  -41881.92968    179.336197
    3448           0      1269.715820  -2821.843750  -41881.92968    165.425949
    3449           0      1600.528442  -2648.261230  -41881.92968    140.738800
    3450           0      1908.011475  -2436.077637  -41881.92968    101.613930
    3451           0      2187.681641  -2188.384766  -41881.92968     85.690254
    3452           0      2435.464600  -1908.793823  -41881.92968    149.437943
    3453           0      2647.746338  -1601.380615  -41881.92968    214.280731
    3454           0      2821.433838  -1270.626831  -41881.92968    195.044418
    3455           0       186.795044  -3088.703125  -41506.02734    199.217453
    3456           0       557.659058  -3043.681641  -41506.02734    190.991440
    3457           0       920.395874  -2954.293457  -41506.02734    182.348618
    3458           0      1269.715820  -2821.843750  -41506.02734    170.403717
    3459           0      1600.528442  -2648.261230  -41506.02734    148.537552
    3460           0      1908.011475  -2436.077637  -41506.02734    111.769463
    3461           0      2187.681641  -2188.384766  -41506.02734     89.400803
    3462           0      2435.464600  -1908.793823  -41506.02734    144.830002
    3463           0      2647.746338  -1601.380615  -41506.02734    212.167755
    3464           0      2821.433838  -1270.626831  -41506.02734    200.327621
    3465           0       186.795029  -3088.703125  -41130.12109    200.582413
    3466           0       557.659058  -3043.681641  -41130.12109    192.839584
    3467           0       920.395874  -2954.293457  -41130.12109    185.362000
    3468           0      1269.715820  -2821.843750  -41130.12109    175.409485
    3469           0      1600.528320  -2648.261230  -41130.12109    156.452911
    3470           0      1908.011475  -2436.077637  -41130.12109    122.371254
    3471           0      2187.681641  -2188.384766  -41130.12109     95.000992
    3472           0      2435.464355  -1908.793945  -41130.12109    140.708176
    3473           0      2647.746094  -1601.380615  -41130.12109    209.766098
    3474           0      2821.433838  -1270.626831  -41130.12109    205.491867
    3475           0       186.795029  -3088.703125  -40754.21875    201.988297
    3476           0       557.659058  -3043.681641  -40754.21875    194.710388
    3477           0       920.395752  -2954.293945  -40754.21875    188.382584
    3478           0      1269.715820  -2821.843994  -40754.21875    180.434509
    3479           0      1600.528320  -2648.261230  -40754.21875    164.457245
    3480           0      1908.011230  -2436.077637  -40754.21875    133.353485
    3481           0      2187.681641  -2188.385254  -40754.21875    102.413399
    3482           0      2435.464355  -1908.793945  -40754.21875    137.322830
    3483           0      2647.746094  -1601.380615  -40754.21875    207.073364
    3484           0      2821.433838  -1270.626831  -40754.21875    210.460892
    3485           0       186.795013  -3088.703125  -40378.31250    203.441055
    3486           0       557.658997  -3043.681641  -40378.31250    196.612885
    3487           0       920.395691  -2954.293945  -40378.31250    191.417908
    3488           0      1269.715698  -2821.843994  -40378.31250    185.475204
    3489           0      1600.528076  -2648.261475  -40378.31250    172.522507
    3490           0      1908.011108  -2436.077881  -40378.31250    144.639679
    3491           0      2187.681641  -2188.385254  -40378.31250    111.477531
    3492           0      2435.464355  -1908.793945  -40378.31250    134.959671
    3493           0      2647.746094  -1601.380615  -40378.31250    204.110977
    3494           0      2821.433838  -1270.626831  -40378.31250    215.148438
    3495           0       186.794998  -3088.703125  -40002.40625    204.943542
    3496           0       557.658936  -3043.681641  -40002.40625    198.556213
    3497           0       920.395569  -2954.293945  -40002.40625    194.477432
    3498           0      1269.715576  -2821.843994  -40002.40625    190.523331
    3499           0      1600.528076  -2648.261475  -40002.40625    180.619263
    3500           0      1908.011108  -2436.077881  -40002.40625    156.172150
    3501           0      2187.681641  -2188.385254  -40002.40625    121.993584
    3502           0      2435.464355  -1908.794067  -40002.40625    133.961014
    3503           0      2647.746094  -1601.380615  -40002.40625    200.906326
    3504           0      2821.433838  -1270.626953  -40002.40625    219.461426
    3505           0       186.794983  -3088.703125  -39626.50781    206.497940
    3506           0       557.658936  -3043.681641  -39626.50781    200.547836
    3507           0       920.395569  -2954.293945  -39626.50781    197.569168
    3508           0      1269.715576  -2821.844238  -39626.50781    195.582672
    3509           0      1600.528076  -2648.261719  -39626.50781    188.724197
    3510           0      1908.010986  -2436.077881  -39626.50781    167.890427
    3511           0      2187.681396  -2188.385254  -39626.50781    133.767685
    3512           0      2435.464355  -1908.794189  -39626.50781    134.643356
    3513           0      2647.746094  -1601.380615  -39626.50781    197.543030
    3514           0      2821.433838  -1270.626953  -39626.50781    223.292923
    3515           0       186.794968  -3088.703125  -39250.60156    208.103622
    3516           0       557.658936  -3043.681641  -39250.60156    202.593811
    3517           0       920.395569  -2954.293945  -39250.60156    200.705429
    3518           0      1269.715576  -2821.844238  -39250.60156    200.650894
    3519           0      1600.528076  -2648.261719  -39250.60156    196.818695
    3520           0      1908.010986  -2436.077881  -39250.60156    179.735718
    3521           0      2187.681396  -2188.385254  -39250.60156    146.607956
    3522           0      2435.464355  -1908.794189  -39250.60156    137.333466
    3523           0      2647.746094  -1601.380737  -39250.60156    194.113449
    3524           0      2821.433838  -1270.626953  -39250.60156    226.539932
    3525           0       186.794952  -3088.703125  -38874.69921    209.760468
    3526           0       557.658813  -3043.681641  -38874.69921    204.699280
    3527           0       920.395508  -2954.293945  -38874.69921    203.893875
    3528           0      1269.715454  -2821.844238  -38874.69921    205.736832
    3529           0      1600.527954  -2648.261719  -38874.69921    204.883926
    3530           0      1908.010986  -2436.077881  -38874.69921    191.660233
    3531           0      2187.681396  -2188.385254  -38874.69921    160.342728
    3532           0      2435.464355  -1908.794189  -38874.69921    142.228638
    3533           0      2647.746094  -1601.380737  -38874.69921    190.817673
    3534           0      2821.433838  -1270.626953  -38874.69921    229.087524
    3535           0       186.794937  -3088.703125  -38498.79687    211.465958
    3536           0       557.658813  -3043.681641  -38498.79687    206.866684
    3537           0       920.395508  -2954.293945  -38498.79687    207.146164
    3538           0      1269.715332  -2821.844238  -38498.79687    210.843506
    3539           0      1600.527954  -2648.261719  -38498.79687    212.914352
    3540           0      1908.010864  -2436.078125  -38498.79687    203.605682
    3541           0      2187.681396  -2188.385254  -38498.79687    174.818665
    3542           0      2435.464355  -1908.794189  -38498.79687    149.492218
    3543           0      2647.746094  -1601.380737  -38498.79687    187.858002
    3544           0      2821.433838  -1270.626953  -38498.79687    230.846130
    3545           0       186.794937  -3088.703125  -38122.89062    213.220261
    3546           0       557.658813  -3043.681641  -38122.89062    209.097748
    3547           0       920.395386  -2954.293945  -38122.89062    210.467163
    3548           0      1269.715332  -2821.844238  -38122.89062    215.986557
    3549           0      1600.527832  -2648.261719  -38122.89062    220.899399
    3550           0      1908.010742  -2436.078125  -38122.89062    215.541092
    3551           0      2187.681152  -2188.385254  -38122.89062    189.878967
    3552           0      2435.464355  -1908.794189  -38122.89062    159.085754
    3553           0      2647.746094  -1601.380737  -38122.89062    185.626678
    3554           0      2821.433838  -1270.626953  -38122.89062    231.724335
    3555           0       186.794922  -3088.703125  -37746.98828    215.019699
    3556           0       557.658752  -3043.681641  -37746.98828    211.391876
    3557           0       920.395386  -2954.293945  -37746.98828    213.864594
    3558           0      1269.715332  -2821.844238  -37746.98828    221.169388
    3559           0      1600.527832  -2648.261719  -37746.98828    228.849655
    3560           0      1908.010742  -2436.078125  -37746.98828    227.415039
    3561           0      2187.681152  -2188.385254  -37746.98828    205.418121
    3562           0      2435.464111  -1908.794312  -37746.98828    170.973557
    3563           0      2647.746094  -1601.380859  -37746.98828    184.459320
    3564           0      2821.433838  -1270.626953  -37746.98828    231.695374
    3565           0       186.794907  -3088.703125  -37371.08593    216.865585
    3566           0       557.658752  -3043.681641  -37371.08593    213.749496
    3567           0       920.395386  -2954.293945  -37371.08593    217.339417
    3568           0      1269.715210  -2821.844238  -37371.08593    226.412292
    3569           0      1600.527710  -2648.261719  -37371.08593    236.762726
    3570           0      1908.010620  -2436.078125  -37371.08593    239.216019
    3571           0      2187.681152  -2188.385498  -37371.08593    221.266403
    3572           0      2435.464111  -1908.794434  -37371.08593    184.930237
    3573           0      2647.746094  -1601.380859  -37371.08593    184.999542
    3574           0      2821.433838  -1270.626953  -37371.08593    230.759964
    3575           0       186.794907  -3088.703125  -36995.18359    218.753906
    3576           0       557.658752  -3043.681641  -36995.18359    216.166946
    3577           0       920.395325  -2954.293945  -36995.18359    220.893204
    3578           0      1269.715088  -2821.844238  -36995.18359    231.713211
    3579           0      1600.527588  -2648.261719  -36995.18359    244.668289
    3580           0      1908.010498  -2436.078125  -36995.18359    250.920425
    3581           0      2187.681152  -2188.385498  -36995.18359    237.397018
    3582           0      2435.463867  -1908.794434  -36995.18359    200.778397
    3583           0      2647.746094  -1601.380859  -36995.18359    187.585800
    3584           0      2821.433838  -1270.626953  -36995.18359    229.033340
    3585           0       186.794891  -3088.703125  -36619.27734    220.690918
    3586           0       557.658691  -3043.681641  -36619.27734    218.647064
    3587           0       920.395264  -2954.293945  -36619.27734    224.526932
    3588           0      1269.715088  -2821.844238  -36619.27734    237.093063
    3589           0      1600.527466  -2648.261719  -36619.27734    252.559708
    3590           0      1908.010498  -2436.078125  -36619.27734    262.531036
    3591           0      2187.680908  -2188.385742  -36619.27734    253.597473
    3592           0      2435.463867  -1908.794434  -36619.27734    218.274551
    3593           0      2647.746094  -1601.380859  -36619.27734    193.102905
    3594           0      2821.433838  -1270.626953  -36619.27734    226.743286
    3595           0       186.794876  -3088.703125  -36243.37500    222.659958
    3596           0       557.658630  -3043.681641  -36243.37500    221.168472
    3597           0       920.395264  -2954.293945  -36243.37500    228.227020
    3598           0      1269.715088  -2821.844238  -36243.37500    242.529312
    3599           0      1600.527466  -2648.261963  -36243.37500    260.476807
    3600           0      1908.010498  -2436.078613  -36243.37500    274.054474
    3601           0      2187.680908  -2188.385742  -36243.37500    269.923065
    3602           0      2435.463867  -1908.794434  -36243.37500    237.023331
    3603           0      2647.746094  -1601.380859  -36243.37500    201.352478
    3604           0      2821.433838  -1270.626953  -36243.37500    224.159271
    3605           0       186.794861  -3088.703125  -35867.46875    224.735077
    3606           0       557.658630  -3043.681641  -35867.46875    223.805450
    3607           0       920.395142  -2954.293945  -35867.46875    232.060974
    3608           0      1269.714966  -2821.844238  -35867.46875    248.122070
    3609           0      1600.527466  -2648.261963  -35867.46875    268.488159
    3610           0      1908.010498  -2436.078613  -35867.46875    285.622589
    3611           0      2187.680908  -2188.385742  -35867.46875    286.360016
    3612           0      2435.463867  -1908.794678  -35867.46875    257.322937
    3613           0      2647.746094  -1601.380981  -35867.46875    213.725296
    3614           0      2821.433838  -1270.626953  -35867.46875    222.017410
    3615           0       186.794846  -3088.703125  -35491.57031    226.580902
    3616           0       557.658569  -3043.681641  -35491.57031    226.223145
    3617           0       920.395081  -2954.293945  -35491.57031    235.663437
    3618           0      1269.714844  -2821.844238  -35491.57031    253.440826
    3619           0      1600.527344  -2648.261963  -35491.57031    276.144470
    3620           0      1908.010376  -2436.078613  -35491.57031    296.621063
    3621           0      2187.680908  -2188.385742  -35491.57031    302.139618
    3622           0      2435.463867  -1908.794678  -35491.57031    277.176300
    3623           0      2647.746094  -1601.381104  -35491.57031    227.735260
    3624           0      2821.433838  -1270.626953  -35491.57031    220.173264
    3625           0       186.794846  -3088.703125  -35115.66406    229.593231
    3626           0       557.658569  -3043.681641  -35115.66406    229.829880
    3627           0       920.395020  -2954.293945  -35115.66406    240.564850
    3628           0      1269.714844  -2821.844238  -35115.66406    260.300171
    3629           0      1600.527344  -2648.261963  -35115.66406    285.574890
    3630           0      1908.010132  -2436.078613  -35115.66406    309.800781
    3631           0      2187.680908  -2188.385742  -35115.66406    320.663727
    3632           0      2435.463867  -1908.794678  -35115.66406    301.547607
    3633           0      2647.746094  -1601.381104  -35115.66406    248.489243
    3634           0      2821.433838  -1270.626953  -35115.66406    220.698792
    3635           0       186.794830  -3088.703125  -34739.75781    228.543671
    3636           0       557.658447  -3043.681641  -34739.75781    229.294907
    3637           0       920.394958  -2954.293945  -34739.75781    240.989395
    3638           0      1269.714722  -2821.844238  -34739.75781    261.955109
    3639           0      1600.527222  -2648.261963  -34739.75781    288.977661
    3640           0      1908.010132  -2436.078613  -34739.75781    315.538940
    3641           0      2187.680664  -2188.385742  -34739.75781    330.505829
    3642           0      2435.463867  -1908.794678  -34739.75781    316.043823
    3643           0      2647.746094  -1601.381104  -34739.75781    262.786957
    3644           0      2821.433838  -1270.626953  -34739.75781    219.788956
    3645           0       186.794815  -3088.703125  -34363.85546    240.885284
    3646           0       557.658447  -3043.681641  -34363.85546    242.401703
    3647           0       920.394958  -2954.293945  -34363.85546    256.075470
    3648           0      1269.714722  -2821.844482  -34363.85546    280.241058
    3649           0      1600.527100  -2648.262207  -34363.85546    311.398163
    3650           0      1908.010132  -2436.078613  -34363.85546    343.558624
    3651           0      2187.680664  -2188.385742  -34363.85546    365.301971
    3652           0      2435.463867  -1908.794678  -34363.85546    358.202240
    3653           0      2647.746094  -1601.381104  -34363.85546    299.508820
    3654           0      2821.433838  -1270.626953  -34363.85546    225.736603
    3655           0       186.794800  -3088.703125  -33987.95312    219.074203
    3656           0       557.658447  -3043.681641  -33987.95312    220.830917
    3657           0       920.394897  -2954.293945  -33987.95312    234.049667
    3658           0      1269.714722  -2821.844482  -33987.95312    257.049866
    3659           0      1600.527100  -2648.262207  -33987.95312    286.831207
    3660           0      1908.010010  -2436.078613  -33987.95312    318.082672
    3661           0      2187.680664  -2188.385986  -33987.95312    341.584686
    3662           0      2435.463867  -1908.794678  -33987.95312    340.617096
    3663           0      2647.746094  -1601.381104  -33987.95312    295.908600
    3664           0      2821.433838  -1270.626953  -33987.95312    217.108551
    3665           0      2954.035645   -921.190063  -64812.04687     78.114548
    3666           0      3043.581055   -558.149414  -64812.04687    145.505280
    3667           0      3088.683105   -186.959442  -64812.04687    174.486282
    3668           0      2954.035645   -921.189941  -64436.14062     84.057968
    3669           0      3043.581299   -558.149048  -64436.14062    147.644394
    3670           0      3088.683105   -186.959229  -64436.14062    181.633316
    3671           0      2954.035645   -921.189941  -64060.24218     80.327332
    3672           0      3043.581299   -558.149048  -64060.24218    120.569298
    3673           0      3088.683105   -186.959229  -64060.24218    152.987991
    3674           0      2954.035645   -921.189941  -63684.33984     83.011490
    3675           0      3043.581299   -558.149048  -63684.33984    109.739098
    3676           0      3088.683105   -186.959244  -63684.33984    141.689499
    3677           0      2954.035645   -921.189941  -63308.43359     86.121155
    3678           0      3043.581299   -558.149048  -63308.43359     95.715668
    3679           0      3088.683105   -186.959259  -63308.43359    123.747627
    3680           0      2954.035645   -921.189941  -62932.53125     91.510857
    3681           0      3043.581299   -558.149048  -62932.53125     89.650963
    3682           0      3088.683105   -186.959259  -62932.53125    109.489410
    3683           0      2954.035645   -921.189941  -62556.62500     96.856606
    3684           0      3043.581299   -558.149048  -62556.62500     88.024788
    3685           0      3088.683105   -186.959259  -62556.62500     95.587357
    3686           0      2954.035645   -921.189941  -62180.72656    101.792816
    3687           0      3043.581299   -558.149048  -62180.72656     92.126671
    3688           0      3088.683105   -186.959259  -62180.72656     84.583633
    3689           0      2954.035645   -921.189941  -61804.82421    105.599625
    3690           0      3043.581299   -558.149048  -61804.82421     99.611786
    3691           0      3088.683105   -186.959259  -61804.82421     76.902672
    3692           0      2954.035645   -921.189941  -61428.91796    108.098991
    3693           0      3043.581299   -558.149109  -61428.91796    109.240654
    3694           0      3088.683105   -186.959290  -61428.91796     73.758888
    3695           0      2954.035645   -921.189941  -61053.01171    109.215599
    3696           0      3043.581299   -558.149170  -61053.01171    119.639259
    3697           0      3088.683105   -186.959305  -61053.01171     75.263077
    3698           0      2954.035645   -921.189941  -60677.10937    109.013237
    3699           0      3043.581299   -558.149170  -60677.10937    130.105942
    3700           0      3088.683105   -186.959305  -60677.10937     80.805550
    3701           0      2954.035645   -921.189941  -60301.20312    107.632072
    3702           0      3043.581299   -558.149170  -60301.20312    140.149231
    3703           0      3088.683105   -186.959305  -60301.20312     89.180084
    3704           0      2954.035645   -921.189941  -59925.29687    105.239464
    3705           0      3043.581299   -558.149170  -59925.29687    149.542679
    3706           0      3088.683105   -186.959305  -59925.29687     99.273529
    3707           0      2954.035645   -921.190002  -59549.39843    102.032784
    3708           0      3043.581299   -558.149170  -59549.39453    158.161972
    3709           0      3088.683105   -186.959305  -59549.39453    110.226822
    3710           0      2954.035645   -921.190002  -59173.49609     98.205093
    3711           0      3043.581299   -558.149170  -59173.49609    165.976303
    3712           0      3088.683105   -186.959320  -59173.49609    121.480232
    3713           0      2954.035645   -921.190002  -58797.59375     93.955994
    3714           0      3043.581299   -558.149231  -58797.59375    172.994751
    3715           0      3088.683105   -186.959335  -58797.59375    132.666153
    3716           0      2954.035645   -921.190002  -58421.68750     89.473961
    3717           0      3043.581299   -558.149231  -58421.69140    179.258270
    3718           0      3088.683105   -186.959335  -58421.68750    143.560104
    3719           0      2954.035645   -921.190002  -58045.78125     84.944870
    3720           0      3043.581299   -558.149231  -58045.78125    184.821304
    3721           0      3088.683105   -186.959335  -58045.78125    154.019379
    3722           0      2954.035645   -921.190002  -57669.87890     80.544189
    3723           0      3043.581299   -558.149231  -57669.87890    189.745956
    3724           0      3088.683105   -186.959335  -57669.87890    163.962631
    3725           0      2954.035645   -921.190002  -57293.97656     76.439873
    3726           0      3043.581299   -558.149231  -57293.97656    194.097046
    3727           0      3088.683105   -186.959335  -57293.97656    173.341858
    3728           0      2954.035645   -921.190002  -56918.07421     72.787186
    3729           0      3043.581299   -558.149231  -56918.07421    197.938126
    3730           0      3088.683105   -186.959335  -56918.07421    182.136108
    3731           0      2954.035645   -921.190002  -56542.17187     69.724289
    3732           0      3043.581299   -558.149231  -56542.17187    201.330841
    3733           0      3088.683105   -186.959351  -56542.17187    190.338425
    3734           0      2954.035645   -921.190002  -56166.26171     67.364578
    3735           0      3043.581299   -558.149231  -56166.26562    204.331833
    3736           0      3088.683105   -186.959366  -56166.26562    197.955261
    3737           0      2954.035645   -921.190002  -55790.35937     65.786377
    3738           0      3043.581299   -558.149231  -55790.35937    206.993561
    3739           0      3088.683105   -186.959366  -55790.35937    204.998917
    3740           0      2954.035645   -921.190002  -55414.46093     65.025978
    3741           0      3043.581299   -558.149231  -55414.46093    209.364258
    3742           0      3088.683105   -186.959366  -55414.45703    211.485184
    3743           0      2954.035645   -921.190002  -55038.55468     65.071442
    3744           0      3043.581299   -558.149231  -55038.55468    211.488068
    3745           0      3088.683105   -186.959366  -55038.55468    217.432510
    3746           0      2954.035645   -921.190063  -54662.65234     65.873283
    3747           0      3043.581299   -558.149292  -54662.64843    213.402954
    3748           0      3088.683105   -186.959366  -54662.64843    222.864670
    3749           0      2954.035645   -921.190063  -54286.74609     67.342766
    3750           0      3043.581299   -558.149292  -54286.74609    215.142792
    3751           0      3088.683105   -186.959381  -54286.74609    227.800980
    3752           0      2954.035645   -921.190063  -53910.84375     69.380180
    3753           0      3043.581299   -558.149292  -53910.84375    216.745789
    3754           0      3088.683105   -186.959396  -53910.84375    232.262405
    3755           0      2954.035645   -921.190063  -53534.93750     71.882309
    3756           0      3043.581299   -558.149292  -53534.94140    218.226593
    3757           0      3088.683105   -186.959396  -53534.93750    236.271561
    3758           0      2954.035645   -921.190063  -53159.03906     74.740623
    3759           0      3043.581299   -558.149292  -53159.03906    219.617432
    3760           0      3088.683105   -186.959396  -53159.03906    239.848129
    3761           0      2954.035645   -921.190063  -52783.13281     77.871605
    3762           0      3043.581299   -558.149292  -52783.13281    220.935608
    3763           0      3088.683105   -186.959396  -52783.13281    243.009766
    3764           0      2954.035645   -921.190063  -52407.22656     81.196327
    3765           0      3043.581299   -558.149292  -52407.22656    222.201004
    3766           0      3088.683105   -186.959396  -52407.22656    245.775467
    3767           0      2954.035645   -921.190063  -52031.32421     84.655998
    3768           0      3043.581299   -558.149292  -52031.32421    223.427979
    3769           0      3088.683105   -186.959396  -52031.32421    248.161682
    3770           0      2954.035645   -921.190063  -51655.42187     88.202751
    3771           0      3043.581299   -558.149292  -51655.42187    224.630447
    3772           0      3088.683105   -186.959412  -51655.42187    250.184143
    3773           0      2954.035645   -921.190063  -51279.51562     91.802505
    3774           0      3043.581299   -558.149353  -51279.51562    225.819138
    3775           0      3088.683105   -186.959427  -51279.51562    251.857651
    3776           0      2954.035645   -921.190063  -50903.60937     95.430725
    3777           0      3043.581299   -558.149353  -50903.60937    227.003906
    3778           0      3088.683105   -186.959427  -50903.60937    253.195389
    3779           0      2954.035645   -921.190063  -50527.71093     99.072258
    3780           0      3043.581299   -558.149353  -50527.70703    228.192764
    3781           0      3088.683105   -186.959427  -50527.71093    254.209167
    3782           0      2954.035645   -921.190063  -50151.80468    102.719650
    3783           0      3043.581299   -558.149353  -50151.80078    229.391876
    3784           0      3088.683105   -186.959427  -50151.80468    254.910858
    3785           0      2954.035645   -921.190063  -49775.90234    106.371483
    3786           0      3043.581299   -558.149353  -49775.90234    230.606064
    3787           0      3088.683105   -186.959427  -49775.90234    255.311493
    3788           0      2954.035645   -921.190063  -49400.00000    110.031799
    3789           0      3043.581299   -558.149414  -49400.00000    231.839325
    3790           0      3088.683105   -186.959442  -49400.00000    255.420868
    3791           0      2954.035645   -921.190063  -49024.09375    113.709618
    3792           0      3043.581299   -558.149414  -49024.09375    233.093399
    3793           0      3088.683105   -186.959473  -49024.09375    255.249634
    3794           0      2954.035645   -921.190063  -48648.18750    117.416733
    3795           0      3043.581299   -558.149414  -48648.18359    234.370316
    3796           0      3088.683105   -186.959473  -48648.18750    254.806427
    3797           0      2954.035645   -921.190063  -48272.28906    121.168930
    3798           0      3043.581299   -558.149414  -48272.28515    235.670227
    3799           0      3088.683105   -186.959473  -48272.28906    254.100342
    3800           0      2954.035645   -921.190063  -47896.38671    124.985191
    3801           0      3043.581299   -558.149414  -47896.38281    236.991791
    3802           0      3088.683105   -186.959473  -47896.38281    253.141556
    3803           0      2954.035645   -921.190063  -47520.47656    128.885803
    3804           0      3043.581299   -558.149414  -47520.47656    238.333771
    3805           0      3088.683105   -186.959473  -47520.47656    251.939270
    3806           0      2954.035645   -921.190063  -47144.57812    132.890549
    3807           0      3043.581299   -558.149414  -47144.57812    239.692963
    3808           0      3088.683105   -186.959488  -47144.57812    250.503433
    3809           0      2954.035645   -921.190063  -46768.67968    137.023163
    3810           0      3043.581299   -558.149414  -46768.68359    241.065796
    3811           0      3088.683105   -186.959503  -46768.67968    248.846222
    3812           0      2954.035645   -921.190063  -46392.77343    141.310226
    3813           0      3043.581299   -558.149414  -46392.77343    242.447495
    3814           0      3088.683105   -186.959503  -46392.77343    246.980972
    3815           0      2954.035645   -921.190063  -46016.86718    145.772461
    3816           0      3043.581299   -558.149414  -46016.86328    243.831024
    3817           0      3088.683105   -186.959503  -46016.86718    244.923447
    3818           0      2954.035645   -921.190063  -45640.96484    150.431320
    3819           0      3043.581055   -558.149475  -45640.96093    245.209351
    3820           0      3088.683105   -186.959503  -45640.96484    242.693634
    3821           0      2954.035645   -921.190063  -45265.05859    155.308502
    3822           0      3043.581055   -558.149475  -45265.05468    246.574905
    3823           0      3088.683105   -186.959503  -45265.06250    240.313049
    3824           0      2954.035645   -921.190063  -44889.15625    160.421997
    3825           0      3043.581055   -558.149475  -44889.15234    247.919800
    3826           0      3088.683105   -186.959503  -44889.15625    237.808365
    3827           0      2954.035645   -921.190063  -44513.25000    165.793350
    3828           0      3043.581055   -558.149475  -44513.25390    249.231277
    3829           0      3088.683105   -186.959518  -44513.25000    235.217102
    3830           0      2954.035645   -921.190063  -44137.35156    171.424622
    3831           0      3043.581055   -558.149536  -44137.34765    250.502563
    3832           0      3088.683105   -186.959534  -44137.34765    232.577820
    3833           0      2954.035645   -921.190063  -43761.44531    177.332321
    3834           0      3043.581055   -558.149536  -43761.44140    251.723175
    3835           0      3088.683105   -186.959534  -43761.44140    229.940582
    3836           0      2954.035645   -921.190063  -43385.53906    183.516785
    3837           0      3043.581055   -558.149536  -43385.53906    252.876968
    3838           0      3088.683105   -186.959534  -43385.53906    227.371338
    3839           0      2954.035645   -921.190063  -43009.64062    189.970642
    3840           0      3043.581055   -558.149536  -43009.63671    253.959290
    3841           0      3088.683105   -186.959534  -43009.63671    224.946381
    3842           0      2954.035645   -921.190063  -42633.73437    196.684265
    3843           0      3043.581055   -558.149536  -42633.73828    254.959091
    3844           0      3088.683105   -186.959534  -42633.73437    222.753952
    3845           0      2954.035645   -921.190063  -42257.83203    203.638428
    3846           0      3043.581055   -558.149536  -42257.83593    255.872452
    3847           0      3088.683105   -186.959549  -42257.83593    220.904541
    3848           0      2954.035645   -921.190063  -41881.92578    210.804993
    3849           0      3043.581055   -558.149536  -41881.92187    256.698853
    3850           0      3088.683105   -186.959564  -41881.92968    219.520386
    3851           0      2954.035645   -921.190125  -41506.02343    218.144592
    3852           0      3043.581055   -558.149536  -41506.01953    257.439423
    3853           0      3088.683105   -186.959564  -41506.02343    218.750580
    3854           0      2954.035645   -921.190125  -41130.12500    225.606430
    3855           0      3043.581055   -558.149536  -41130.12890    258.111877
    3856           0      3088.683105   -186.959564  -41130.12500    218.749939
    3857           0      2954.035645   -921.190125  -40754.21875    233.131378
    3858           0      3043.581055   -558.149536  -40754.22656    258.739288
    3859           0      3088.683105   -186.959564  -40754.21875    219.695358
    3860           0      2954.035645   -921.190125  -40378.31640    240.641815
    3861           0      3043.581055   -558.149536  -40378.31640    259.370758
    3862           0      3088.683105   -186.959564  -40378.31640    221.755463
    3863           0      2954.035645   -921.190125  -40002.40625    248.060623
    3864           0      3043.581055   -558.149536  -40002.41015    260.057465
    3865           0      3088.683105   -186.959564  -40002.40625    225.117432
    3866           0      2954.035645   -921.190125  -39626.50390    255.281372
    3867           0      3043.581055   -558.149536  -39626.50000    260.907806
    3868           0      3088.683105   -186.959579  -39626.50390    229.921555
    3869           0      2954.035645   -921.190125  -39250.59765    262.213654
    3870           0      3043.581055   -558.149597  -39250.59375    262.016785
    3871           0      3088.683105   -186.959595  -39250.59765    236.323807
    3872           0      2954.035645   -921.190125  -38874.69921    268.727905
    3873           0      3043.581055   -558.149597  -38874.69921    263.578339
    3874           0      3088.683105   -186.959595  -38874.69921    244.387466
    3875           0      2954.035645   -921.190125  -38498.80078    274.736938
    3876           0      3043.581055   -558.149597  -38498.80468    265.737366
    3877           0      3088.683105   -186.959595  -38498.80078    254.198074
    3878           0      2954.035645   -921.190125  -38122.89453    280.105133
    3879           0      3043.581055   -558.149597  -38122.89453    268.796112
    3880           0      3088.683105   -186.959595  -38122.89453    265.702728
    3881           0      2954.035645   -921.190125  -37746.98828    284.778107
    3882           0      3043.581055   -558.149597  -37746.98828    272.916840
    3883           0      3088.683105   -186.959595  -37746.98828    278.894440
    3884           0      2954.035645   -921.190125  -37371.08593    288.653961
    3885           0      3043.581055   -558.149658  -37371.08203    278.510742
    3886           0      3088.683105   -186.959610  -37371.08203    293.599579
    3887           0      2954.035645   -921.190125  -36995.17968    291.741241
    3888           0      3043.581055   -558.149658  -36995.17187    285.618378
    3889           0      3088.683105   -186.959625  -36995.17578    309.702362
    3890           0      2954.035645   -921.190186  -36619.27734    294.051392
    3891           0      3043.581055   -558.149658  -36619.27734    294.779480
    3892           0      3088.683105   -186.959625  -36619.27734    326.982727
    3893           0      2954.035645   -921.190186  -36243.37500    295.579468
    3894           0      3043.581055   -558.149658  -36243.37500    305.480988
    3895           0      3088.683105   -186.959625  -36243.37500    345.059967
    3896           0      2954.035645   -921.190186  -35867.46875    296.684601
    3897           0      3043.581055   -558.149658  -35867.46484    318.819458
    3898           0      3088.683105   -186.959625  -35867.46875    364.252136
    3899           0      2954.035645   -921.190186  -35491.56250    296.616577
    3900           0      3043.581055   -558.149658  -35491.55859    332.051056
    3901           0      3088.683105   -186.959625  -35491.56250    382.407654
    3902           0      2954.035645   -921.190186  -35115.65625    297.162964
    3903           0      3043.581055   -558.149658  -35115.64843    350.262604
    3904           0      3088.683105   -186.959656  -35115.65625    404.944183
    3905           0      2954.035645   -921.190186  -34739.75781    293.096832
    3906           0      3043.581055   -558.149719  -34739.75390    359.271240
    3907           0      3088.683105   -186.959671  -34739.75781    416.057251
    3908           0      2954.035645   -921.190186  -34363.85937    291.944458
    3909           0      3043.581055   -558.149719  -34363.86328    389.352966
    3910           0      3088.683105   -186.959671  -34363.85937    457.816528
    3911           0      2954.035645   -921.190186  -33987.95312    272.113739
    3912           0      3043.581055   -558.149719  -33987.95312    373.461639
    3913           0      3088.683105   -186.959671  -33987.95312    432.841919
    3914           0     -3088.683105   -186.960587  -64812.04687    171.586945
    3915           0     -3043.581055   -558.151123  -64812.04687    147.030334
    3916           0     -2954.035645   -921.190552  -64812.04687     90.869759
    3917           0     -3088.683105   -186.960693  -64436.14062    176.572083
    3918           0     -3043.581055   -558.151428  -64436.14062    147.534286
    3919           0     -2954.035645   -921.190796  -64436.14062     96.674210
    3920           0     -3088.683105   -186.960693  -64060.24218    145.831482
    3921           0     -3043.581055   -558.151428  -64060.24218    119.230492
    3922           0     -2954.035645   -921.190735  -64060.24218     93.537201
    3923           0     -3088.683105   -186.960693  -63684.33984    132.387772
    3924           0     -3043.581055   -558.151367  -63684.33984    106.933632
    3925           0     -2954.035645   -921.190674  -63684.33984     95.788696
    3926           0     -3088.683105   -186.960693  -63308.43359    112.311035
    3927           0     -3043.581055   -558.151367  -63308.43359     92.083458
    3928           0     -2954.035645   -921.190674  -63308.43359     98.491364
    3929           0     -3088.683105   -186.960693  -62932.53125     95.971939
    3930           0     -3043.581055   -558.151367  -62932.53125     85.932457
    3931           0     -2954.035645   -921.190674  -62932.53125    103.331581
    3932           0     -3088.683105   -186.960693  -62556.62500     80.325119
    3933           0     -3043.581055   -558.151367  -62556.62500     85.284225
    3934           0     -2954.035645   -921.190674  -62556.62500    108.274902
    3935           0     -3088.683105   -186.960693  -62180.72656     68.399879
    3936           0     -3043.581055   -558.151367  -62180.72656     91.026024
    3937           0     -2954.035645   -921.190674  -62180.72656    112.935905
    3938           0     -3088.683105   -186.960678  -61804.82421     61.467552
    3939           0     -3043.581055   -558.151367  -61804.82421    100.439560
    3940           0     -2954.035645   -921.190674  -61804.82421    116.626144
    3941           0     -3088.683105   -186.960663  -61428.91796     61.252556
    3942           0     -3043.581055   -558.151367  -61428.91796    111.949791
    3943           0     -2954.035645   -921.190674  -61428.91796    119.144714
    3944           0     -3088.683105   -186.960663  -61053.01171     67.263344
    3945           0     -3043.581055   -558.151367  -61053.01171    124.107178
    3946           0     -2954.035645   -921.190674  -61053.01171    120.395256
    3947           0     -3088.683105   -186.960663  -60677.10937     77.601280
    3948           0     -3043.581055   -558.151367  -60677.10937    136.185654
    3949           0     -2954.035645   -921.190674  -60677.10937    120.429382
    3950           0     -3088.683105   -186.960663  -60301.20312     90.289436
    3951           0     -3043.581055   -558.151367  -60301.20312    147.721710
    3952           0     -2954.035645   -921.190674  -60301.20312    119.365829
    3953           0     -3088.683105   -186.960663  -59925.29687    104.027039
    3954           0     -3043.581055   -558.151367  -59925.29687    158.508179
    3955           0     -2954.035645   -921.190674  -59925.29687    117.366905
    3956           0     -3088.683105   -186.960663  -59549.39843    118.044746
    3957           0     -3043.581055   -558.151367  -59549.39453    168.444244
    3958           0     -2954.035645   -921.190674  -59549.39843    114.613335
    3959           0     -3088.683105   -186.960663  -59173.49609    131.910889
    3960           0     -3043.581055   -558.151306  -59173.49609    177.513336
    3961           0     -2954.035645   -921.190674  -59173.49609    111.294907
    3962           0     -3088.683105   -186.960663  -58797.59375    145.373749
    3963           0     -3043.581055   -558.151306  -58797.58984    185.738373
    3964           0     -2954.035645   -921.190674  -58797.58984    107.595627
    3965           0     -3088.683105   -186.960663  -58421.68750    158.292786
    3966           0     -3043.581055   -558.151306  -58421.68750    193.167923
    3967           0     -2954.035645   -921.190674  -58421.68750    103.696777
    3968           0     -3088.683105   -186.960663  -58045.78125    170.586807
    3969           0     -3043.581055   -558.151306  -58045.78125    199.863754
    3970           0     -2954.035645   -921.190674  -58045.78125     99.764473
    3971           0     -3088.683105   -186.960663  -57669.87890    182.216660
    3972           0     -3043.581055   -558.151306  -57669.87890    205.892029
    3973           0     -2954.035645   -921.190674  -57669.87890     95.957085
    3974           0     -3088.683105   -186.960648  -57293.97656    193.165237
    3975           0     -3043.581055   -558.151245  -57293.97656    211.321350
    3976           0     -2954.035645   -921.190674  -57293.97656     92.413460
    3977           0     -3088.683105   -186.960632  -56918.07421    203.433701
    3978           0     -3043.581055   -558.151245  -56918.07421    216.216721
    3979           0     -2954.035645   -921.190552  -56918.07421     89.259598
    3980           0     -3088.683105   -186.960632  -56542.17187    213.031525
    3981           0     -3043.581055   -558.151245  -56542.17187    220.640961
    3982           0     -2954.035645   -921.190552  -56542.16796     86.596916
    3983           0     -3088.683105   -186.960632  -56166.26562    221.976318
    3984           0     -3043.581055   -558.151245  -56166.26562    224.651123
    3985           0     -2954.035645   -921.190552  -56166.26562     84.506424
    3986           0     -3088.683105   -186.960632  -55790.35937    230.288391
    3987           0     -3043.581055   -558.151245  -55790.35937    228.300201
    3988           0     -2954.035645   -921.190552  -55790.35937     83.038956
    3989           0     -3088.683105   -186.960632  -55414.45312    237.991379
    3990           0     -3043.581055   -558.151245  -55414.45312    231.635208
    3991           0     -2954.035645   -921.190552  -55414.45312     82.218925
    3992           0     -3088.683105   -186.960632  -55038.55468    245.108765
    3993           0     -3043.581055   -558.151184  -55038.55468    234.698929
    3994           0     -2954.035645   -921.190552  -55038.55468     82.040459
    3995           0     -3088.683105   -186.960632  -54662.65234    251.665314
    3996           0     -3043.581055   -558.151184  -54662.64843    237.528137
    3997           0     -2954.035645   -921.190552  -54662.65234     82.474289
    3998           0     -3088.683105   -186.960632  -54286.74609    257.683990
    3999           0     -3043.581055   -558.151184  -54286.74609    240.156876
    4000           0     -2954.035645   -921.190552  -54286.74609     83.467712
    4001           0     -3088.683105   -186.960632  -53910.84375    263.187866
    4002           0     -3043.581055   -558.151184  -53910.84375    242.614441
    4003           0     -2954.035645   -921.190552  -53910.84375     84.961906
    4004           0     -3088.683105   -186.960632  -53534.93750    268.197784
    4005           0     -3043.581055   -558.151184  -53534.93750    244.924576
    4006           0     -2954.035645   -921.190552  -53534.93750     86.885498
    4007           0     -3088.683105   -186.960632  -53159.03906    272.733551
    4008           0     -3043.581055   -558.151184  -53159.03906    247.109009
    4009           0     -2954.035645   -921.190552  -53159.03906     89.168579
    4010           0     -3088.683105   -186.960602  -52783.13281    276.813538
    4011           0     -3043.581055   -558.151184  -52783.13281    249.186401
    4012           0     -2954.035645   -921.190552  -52783.13281     91.747467
    4013           0     -3088.683105   -186.960602  -52407.22656    280.454346
    4014           0     -3043.581055   -558.151123  -52407.22656    251.172516
    4015           0     -2954.035645   -921.190552  -52407.23046     94.563263
    4016           0     -3088.683105   -186.960602  -52031.32421    283.670868
    4017           0     -3043.581055   -558.151123  -52031.32421    253.080994
    4018           0     -2954.035645   -921.190552  -52031.32812     97.566673
    4019           0     -3088.683105   -186.960602  -51655.42187    286.476471
    4020           0     -3043.581055   -558.151123  -51655.42187    254.921860
    4021           0     -2954.035645   -921.190552  -51655.42187    100.717110
    4022           0     -3088.683105   -186.960602  -51279.51562    288.882965
    4023           0     -3043.581055   -558.151123  -51279.51562    256.704590
    4024           0     -2954.035645   -921.190552  -51279.51562    103.982239
    4025           0     -3088.683105   -186.960602  -50903.60937    290.900299
    4026           0     -3043.581055   -558.151123  -50903.60937    258.435974
    4027           0     -2954.035645   -921.190552  -50903.61718    107.338516
    4028           0     -3088.683105   -186.960587  -50527.71093    292.537384
    4029           0     -3043.581055   -558.151123  -50527.71093    260.121399
    4030           0     -2954.035645   -921.190552  -50527.71093    110.769264
    4031           0     -3088.683105   -186.960571  -50151.80859    293.801270
    4032           0     -3043.581055   -558.151123  -50151.80468    261.764526
    4033           0     -2954.035645   -921.190552  -50151.80468    114.264740
    4034           0     -3088.683105   -186.960571  -49775.90234    294.697205
    4035           0     -3043.581055   -558.151123  -49775.90234    263.367981
    4036           0     -2954.035645   -921.190552  -49775.90234    117.820404
    4037           0     -3088.683105   -186.960571  -49400.00000    295.230194
    4038           0     -3043.581055   -558.151123  -49400.00000    264.932159
    4039           0     -2954.035645   -921.190552  -49400.00000    121.437408
    4040           0     -3088.683105   -186.960571  -49024.09375    295.402710
    4041           0     -3043.581055   -558.151123  -49024.09375    266.457275
    4042           0     -2954.035645   -921.190552  -49024.09765    125.120201
    4043           0     -3088.683105   -186.960571  -48648.18750    295.216644
    4044           0     -3043.581055   -558.151123  -48648.18750    267.941254
    4045           0     -2954.035645   -921.190552  -48648.18750    128.877777
    4046           0     -3088.683105   -186.960571  -48272.28906    294.672852
    4047           0     -3043.581055   -558.151062  -48272.28906    269.381195
    4048           0     -2954.035645   -921.190552  -48272.28906    132.721405
    4049           0     -3088.683105   -186.960571  -47896.38671    293.770325
    4050           0     -3043.581055   -558.151062  -47896.38671    270.773041
    4051           0     -2954.035645   -921.190552  -47896.38671    136.665207
    4052           0     -3088.683105   -186.960571  -47520.48046    292.507721
    4053           0     -3043.581055   -558.151062  -47520.48046    272.111053
    4054           0     -2954.035645   -921.190552  -47520.48437    140.725082
    4055           0     -3088.683105   -186.960571  -47144.57812    290.882477
    4056           0     -3043.581055   -558.151062  -47144.57812    273.388184
    4057           0     -2954.035645   -921.190552  -47144.57812    144.918091
    4058           0     -3088.683105   -186.960571  -46768.67968    288.891266
    4059           0     -3043.581055   -558.151062  -46768.67968    274.596130
    4060           0     -2954.035645   -921.190552  -46768.67187    149.262283
    4061           0     -3088.683105   -186.960571  -46392.77343    286.529907
    4062           0     -3043.581055   -558.151062  -46392.77343    275.724701
    4063           0     -2954.035645   -921.190552  -46392.76953    153.775986
    4064           0     -3088.683105   -186.960556  -46016.87109    283.793976
    4065           0     -3043.581055   -558.151062  -46016.86718    276.762238
    4066           0     -2954.035645   -921.190491  -46016.86718    158.476471
    4067           0     -3088.683105   -186.960541  -45640.96484    280.679016
    4068           0     -3043.581055   -558.151001  -45640.96484    277.694672
    4069           0     -2954.035645   -921.190430  -45640.96484    163.381897
    4070           0     -3088.683105   -186.960541  -45265.06250    277.180176
    4071           0     -3043.581055   -558.151001  -45265.06250    278.506714
    4072           0     -2954.035645   -921.190430  -45265.06250    168.504074
    4073           0     -3088.683105   -186.960541  -44889.15625    273.293243
    4074           0     -3043.581055   -558.151001  -44889.15625    279.181335
    4075           0     -2954.035645   -921.190430  -44889.15625    173.859558
    4076           0     -3088.683105   -186.960541  -44513.25000    269.015991
    4077           0     -3043.581055   -558.151001  -44513.25390    279.695862
    4078           0     -2954.035645   -921.190430  -44513.25000    179.457153
    4079           0     -3088.683105   -186.960541  -44137.35156    264.348175
    4080           0     -3043.581055   -558.151001  -44137.34765    280.031067
    4081           0     -2954.035645   -921.190430  -44137.35156    185.296707
    4082           0     -3088.683105   -186.960541  -43761.44531    259.287201
    4083           0     -3043.581055   -558.151001  -43761.44140    280.158051
    4084           0     -2954.035645   -921.190430  -43761.44140    191.386627
    4085           0     -3088.683105   -186.960541  -43385.53906    253.846588
    4086           0     -3043.581055   -558.150940  -43385.53515    280.053284
    4087           0     -2954.035645   -921.190430  -43385.53906    197.719193
    4088           0     -3088.683105   -186.960541  -43009.63281    248.035828
    4089           0     -3043.581055   -558.150940  -43009.63281    279.679932
    4090           0     -2954.035645   -921.190430  -43009.63671    204.277145
    4091           0     -3088.683105   -186.960541  -42633.73437    241.873230
    4092           0     -3043.581055   -558.150940  -42633.73046    279.011230
    4093           0     -2954.035645   -921.190430  -42633.73437    211.045090
    4094           0     -3088.683105   -186.960541  -42257.83203    235.394516
    4095           0     -3043.581055   -558.150940  -42257.83593    278.007019
    4096           0     -2954.035645   -921.190430  -42257.82812    217.991531
    4097           0     -3088.683105   -186.960541  -41881.92968    228.639587
    4098           0     -3043.581055   -558.150940  -41881.92578    276.635040
    4099           0     -2954.035645   -921.190430  -41881.92968    225.078384
    4100           0     -3088.683105   -186.960526  -41506.02343    221.682083
    4101           0     -3043.581055   -558.150879  -41506.01953    274.850677
    4102           0     -2954.035645   -921.190430  -41506.02343    232.251633
    4103           0     -3088.683105   -186.960510  -41130.12109    214.599197
    4104           0     -3043.581055   -558.150879  -41130.12109    272.626862
    4105           0     -2954.035645   -921.190430  -41130.12109    239.448761
    4106           0     -3088.683105   -186.960510  -40754.21875    207.526260
    4107           0     -3043.581055   -558.150879  -40754.21875    269.916840
    4108           0     -2954.035645   -921.190430  -40754.21875    246.589203
    4109           0     -3088.683105   -186.960510  -40378.31250    200.597595
    4110           0     -3043.581055   -558.150879  -40378.31640    266.712952
    4111           0     -2954.035645   -921.190430  -40378.31250    253.579956
    4112           0     -3088.683105   -186.960510  -40002.40625    194.041733
    4113           0     -3043.581055   -558.150879  -40002.40625    262.972229
    4114           0     -2954.035645   -921.190430  -40002.40625    260.312561
    4115           0     -3088.683105   -186.960510  -39626.50781    188.067993
    4116           0     -3043.581055   -558.150879  -39626.50390    258.733856
    4117           0     -2954.035645   -921.190430  -39626.50390    266.659210
    4118           0     -3088.683105   -186.960510  -39250.60156    183.017746
    4119           0     -3043.581055   -558.150879  -39250.59765    253.969604
    4120           0     -2954.035645   -921.190430  -39250.60156    272.485352
    4121           0     -3088.683105   -186.960510  -38874.69921    179.161377
    4122           0     -3043.581055   -558.150879  -38874.69921    248.818726
    4123           0     -2954.035645   -921.190308  -38874.69921    277.626740
    4124           0     -3088.683105   -186.960510  -38498.79687    176.919373
    4125           0     -3043.581055   -558.150879  -38498.79687    243.276855
    4126           0     -2954.035645   -921.190308  -38498.79687    281.939819
    4127           0     -3088.683105   -186.960510  -38122.89062    176.531662
    4128           0     -3043.581055   -558.150879  -38122.89453    237.676865
    4129           0     -2954.035645   -921.190308  -38122.89062    285.224670
    4130           0     -3088.683105   -186.960510  -37746.98828    178.342377
    4131           0     -3043.581055   -558.150879  -37746.98828    232.031998
    4132           0     -2954.035645   -921.190308  -37746.98828    287.370941
    4133           0     -3088.683105   -186.960510  -37371.08593    182.431686
    4134           0     -3043.581055   -558.150879  -37371.08203    227.002365
    4135           0     -2954.035645   -921.190308  -37371.08203    288.143707
    4136           0     -3088.683105   -186.960495  -36995.17968    188.821854
    4137           0     -3043.581055   -558.150818  -36995.17578    222.528397
    4138           0     -2954.035645   -921.190308  -36995.17968    287.553772
    4139           0     -3088.683105   -186.960480  -36619.27734    197.479416
    4140           0     -3043.581055   -558.150818  -36619.27734    219.742477
    4141           0     -2954.035645   -921.190308  -36619.27734    285.298981
    4142           0     -3088.683105   -186.960480  -36243.37500    207.815063
    4143           0     -3043.581055   -558.150818  -36243.37500    218.156189
    4144           0     -2954.035645   -921.190308  -36243.37500    281.664886
    4145           0     -3088.683105   -186.960480  -35867.46875    220.340134
    4146           0     -3043.581055   -558.150818  -35867.46875    219.462738
    4147           0     -2954.035645   -921.190308  -35867.46875    276.104767
    4148           0     -3088.683105   -186.960480  -35491.56250    232.815262
    4149           0     -3043.581055   -558.150818  -35491.56250    221.793869
    4150           0     -2954.035645   -921.190308  -35491.56640    269.325653
    4151           0     -3088.683105   -186.960480  -35115.65625    249.313965
    4152           0     -3043.581055   -558.150818  -35115.65625    228.042221
    4153           0     -2954.035645   -921.190308  -35115.66406    259.908478
    4154           0     -3088.683105   -186.960480  -34739.75781    259.309998
    4155           0     -3043.581055   -558.150818  -34739.75781    231.956314
    4156           0     -2954.035645   -921.190308  -34739.75781    248.462585
    4157           0     -3088.683105   -186.960480  -34363.85937    286.698242
    4158           0     -3043.581055   -558.150757  -34363.85937    243.990799
    4159           0     -2954.035645   -921.190308  -34363.85546    236.104507
    4160           0     -3088.683105   -186.960480  -33987.95312    280.410553
    4161           0     -3043.581055   -558.150757  -33987.95312    241.219894
    4162           0     -2954.035645   -921.190308  -33987.95312    200.847672
    4163           0     -2821.431641  -1270.631104  -64812.04687     94.978271
    4164           0     -2647.742676  -1601.387085  -64812.04687    141.128754
    4165           0     -2435.458008  -1908.801636  -64812.04687    153.230438
    4166           0     -2187.674316  -2188.392578  -64812.04687    135.737686
    4167           0     -1908.001831  -2436.084717  -64812.04687    100.627640
    4168           0     -1600.518066  -2648.268066  -64812.04687     57.887562
    4169           0     -1269.705933  -2821.848145  -64812.04687     21.566893
    4170           0      -920.385498  -2954.297119  -64812.04687     31.946886
    4171           0      -557.650330  -3043.683105  -64812.04687     55.291164
    4172           0      -186.789215  -3088.704102  -64812.04687     68.436630
    4173           0     -2821.431641  -1270.631348  -64436.14062    102.065056
    4174           0     -2647.741943  -1601.388184  -64436.14062    143.478409
    4175           0     -2435.456787  -1908.803223  -64436.14062    160.230698
    4176           0     -2187.672363  -2188.394531  -64436.14062    144.600662
    4177           0     -1907.999390  -2436.086426  -64436.14062    108.537041
    4178           0     -1600.515381  -2648.269775  -64436.14062     63.303291
    4179           0     -1269.703369  -2821.849365  -64436.14062     23.011885
    4180           0      -920.383179  -2954.297852  -64436.14062     32.317883
    4181           0      -557.648499  -3043.683594  -64436.14062     57.465923
    4182           0      -186.788834  -3088.704102  -64436.14062     71.634323
    4183           0     -2821.431641  -1270.631348  -64060.24218    102.151634
    4184           0     -2647.741943  -1601.388184  -64060.24218    120.574547
    4185           0     -2435.456787  -1908.803223  -64060.24218    135.661407
    4186           0     -2187.672607  -2188.394531  -64060.24218    126.349075
    4187           0     -1907.999512  -2436.086426  -64060.24218     97.463623
    4188           0     -1600.515503  -2648.269531  -64060.24218     59.011986
    4189           0     -1269.703613  -2821.849121  -64060.24218     23.977306
    4190           0      -920.383301  -2954.297852  -64060.24218     27.452072
    4191           0      -557.648560  -3043.683594  -64060.24218     48.923630
    4192           0      -186.788834  -3088.704102  -64060.24218     61.621147
    4193           0     -2821.431641  -1270.631348  -63684.33984    107.362617
    4194           0     -2647.741943  -1601.388184  -63684.33984    111.661087
    4195           0     -2435.456787  -1908.803223  -63684.33984    126.249001
    4196           0     -2187.672607  -2188.394531  -63684.33984    120.084999
    4197           0     -1907.999512  -2436.086426  -63684.33984     94.690384
    4198           0     -1600.515503  -2648.269531  -63684.33984     58.890587
    4199           0     -1269.703613  -2821.849121  -63684.33984     25.479454
    4200           0      -920.383301  -2954.297852  -63684.33984     25.569016
    4201           0      -557.648560  -3043.683594  -63684.33984     45.316406
    4202           0      -186.788834  -3088.704102  -63684.33984     57.545132
    4203           0     -2821.431641  -1270.631348  -63308.43359    113.257843
    4204           0     -2647.741943  -1601.387939  -63308.43359     99.604935
    4205           0     -2435.456787  -1908.803223  -63308.43359    110.815170
    4206           0     -2187.672607  -2188.394287  -63308.43359    109.582275
    4207           0     -1907.999512  -2436.086426  -63308.43359     89.074013
    4208           0     -1600.515503  -2648.269531  -63308.43359     57.613285
    4209           0     -1269.703613  -2821.849121  -63308.43359     26.906065
    4210           0      -920.383362  -2954.297852  -63308.43359     22.731838
    4211           0      -557.648621  -3043.683594  -63308.43359     39.712246
    4212           0      -186.788834  -3088.704102  -63308.43359     51.103653
    4213           0     -2821.431641  -1270.631348  -62932.53125    121.252396
    4214           0     -2647.741943  -1601.387939  -62932.53125     94.077187
    4215           0     -2435.456787  -1908.803223  -62932.53125     98.170135
    4216           0     -2187.672607  -2188.394287  -62932.53125    100.537315
    4217           0     -1907.999756  -2436.086426  -62932.53125     84.501259
    4218           0     -1600.515625  -2648.269531  -62932.53125     56.772518
    4219           0     -1269.703613  -2821.849121  -62932.53125     28.505823
    4220           0      -920.383423  -2954.297852  -62932.53125     20.781948
    4221           0      -557.648682  -3043.683594  -62932.53125     34.846409
    4222           0      -186.788879  -3088.704102  -62932.53125     45.451385
    4223           0     -2821.431641  -1270.631348  -62556.62500    129.241791
    4224           0     -2647.741943  -1601.387939  -62556.62500     91.817284
    4225           0     -2435.456787  -1908.803101  -62556.62500     85.349365
    4226           0     -2187.672852  -2188.394287  -62556.62500     91.070068
    4227           0     -1907.999756  -2436.086426  -62556.62500     79.811829
    4228           0     -1600.515625  -2648.269531  -62556.62500     56.002190
    4229           0     -1269.703735  -2821.849121  -62556.62500     30.203611
    4230           0      -920.383423  -2954.297852  -62556.62500     19.251080
    4231           0      -557.648743  -3043.683594  -62556.62500     29.774172
    4232           0      -186.788940  -3088.704102  -62556.62500     39.498501
    4233           0     -2821.431641  -1270.631348  -62180.72656    136.856201
    4234           0     -2647.741943  -1601.387939  -62180.72656     94.214256
    4235           0     -2435.457031  -1908.802979  -62180.72656     74.209389
    4236           0     -2187.672852  -2188.394043  -62180.72656     81.570770
    4237           0     -1907.999756  -2436.086426  -62180.72656     75.286461
    4238           0     -1600.515869  -2648.269531  -62180.72656     55.372196
    4239           0     -1269.703857  -2821.849121  -62180.72656     32.018623
    4240           0      -920.383545  -2954.297852  -62180.72656     18.541187
    4241           0      -557.648804  -3043.683594  -62180.72656     24.883911
    4242           0      -186.788940  -3088.704102  -62180.72656     33.605602
    4243           0     -2821.431641  -1270.631348  -61804.82421    143.363174
    4244           0     -2647.741943  -1601.387939  -61804.82421     99.467842
    4245           0     -2435.457031  -1908.802979  -61804.82421     65.047813
    4246           0     -2187.672852  -2188.394043  -61804.82421     72.062813
    4247           0     -1907.999878  -2436.086182  -61804.82421     70.813370
    4248           0     -1600.515869  -2648.269287  -61804.82421     54.919582
    4249           0     -1269.703857  -2821.849121  -61804.82421     33.941059
    4250           0      -920.383667  -2954.297607  -61804.82421     18.715801
    4251           0      -557.648865  -3043.683350  -61804.82421     20.192284
    4252           0      -186.788940  -3088.704102  -61804.82421     27.694765
    4253           0     -2821.431641  -1270.631348  -61428.91796    148.564713
    4254           0     -2647.741943  -1601.387939  -61428.91796    106.774582
    4255           0     -2435.457031  -1908.802979  -61428.91796     58.906666
    4256           0     -2187.672852  -2188.394043  -61428.91796     62.526695
    4257           0     -1907.999878  -2436.086182  -61428.91796     66.390152
    4258           0     -1600.515869  -2648.269287  -61428.91796     54.610962
    4259           0     -1269.703979  -2821.849121  -61428.91796     35.996643
    4260           0      -920.383667  -2954.297607  -61428.91796     19.798672
    4261           0      -557.648865  -3043.683350  -61428.91796     15.972455
    4262           0      -186.788940  -3088.704102  -61428.91796     21.836161
    4263           0     -2821.431641  -1270.631348  -61053.01171    152.339142
    4264           0     -2647.741943  -1601.387817  -61053.01171    114.959854
    4265           0     -2435.457031  -1908.802979  -61053.01171     56.469219
    4266           0     -2187.672852  -2188.394043  -61053.01171     53.178364
    4267           0     -1908.000000  -2436.085938  -61053.01171     61.980663
    4268           0     -1600.515991  -2648.269287  -61053.01171     54.453773
    4269           0     -1269.704102  -2821.849121  -61053.01171     38.174038
    4270           0      -920.383728  -2954.297607  -61053.01171     21.691980
    4271           0      -557.648926  -3043.683350  -61053.01171     12.751307
    4272           0      -186.788940  -3088.704102  -61053.01171     16.132557
    4273           0     -2821.431641  -1270.631348  -60677.10937    154.717834
    4274           0     -2647.742188  -1601.387817  -60677.10937    123.416656
    4275           0     -2435.457031  -1908.802979  -60677.10937     57.840702
    4276           0     -2187.672852  -2188.394043  -60677.10937     44.142902
    4277           0     -1908.000000  -2436.085938  -60677.10937     57.605461
    4278           0     -1600.516113  -2648.269043  -60677.10937     54.408306
    4279           0     -1269.704102  -2821.849121  -60677.10937     40.484997
    4280           0      -920.383789  -2954.297607  -60677.10937     24.234062
    4281           0      -557.648987  -3043.683350  -60677.10937     11.475025
    4282           0      -186.788940  -3088.704102  -60677.10937     10.911863
    4283           0     -2821.431641  -1270.631348  -60301.20312    155.800476
    4284           0     -2647.742188  -1601.387817  -60301.20312    131.646317
    4285           0     -2435.457031  -1908.802856  -60301.20312     62.376492
    4286           0     -2187.672852  -2188.394043  -60301.20312     35.800655
    4287           0     -1908.000244  -2436.085938  -60301.20312     53.257671
    4288           0     -1600.516113  -2648.269043  -60301.20312     54.461494
    4289           0     -1269.704102  -2821.848877  -60301.20312     42.907757
    4290           0      -920.383850  -2954.297607  -60301.20312     27.282099
    4291           0      -557.648987  -3043.683350  -60301.20312     12.792899
    4292           0      -186.788940  -3088.704102  -60301.20312      7.400676
    4293           0     -2821.431641  -1270.631348  -59925.29687    155.719604
    4294           0     -2647.742188  -1601.387817  -59925.29687    139.414337
    4295           0     -2435.457031  -1908.802734  -59925.29687     69.047096
    4296           0     -2187.673096  -2188.394043  -59925.29687     28.699656
    4297           0     -1908.000244  -2436.085938  -59925.29687     48.984219
    4298           0     -1600.516113  -2648.269043  -59925.29687     54.574848
    4299           0     -1269.704224  -2821.848877  -59925.29687     45.434986
    4300           0      -920.383972  -2954.297607  -59925.29687     30.707380
    4301           0      -557.649048  -3043.683350  -59925.29687     16.123810
    4302           0      -186.788940  -3088.704102  -59925.29687      8.292048
    4303           0     -2821.431641  -1270.631348  -59549.39843    154.636734
    4304           0     -2647.742188  -1601.387695  -59549.39453    146.562317
    4305           0     -2435.457031  -1908.802734  -59549.39453     76.939705
    4306           0     -2187.673096  -2188.394043  -59549.39453     23.895355
    4307           0     -1908.000244  -2436.085938  -59549.39453     44.811363
    4308           0     -1600.516113  -2648.269043  -59549.39453     54.730904
    4309           0     -1269.704346  -2821.848877  -59549.39453     48.037365
    4310           0      -920.384033  -2954.297607  -59549.39453     34.422962
    4311           0      -557.649109  -3043.683350  -59549.39453     20.538980
    4312           0      -186.788940  -3088.704102  -59549.39453     12.735348
    4313           0     -2821.431641  -1270.631348  -59173.49609    152.707169
    4314           0     -2647.742188  -1601.387695  -59173.49218    153.039581
    4315           0     -2435.457031  -1908.802734  -59173.49218     85.385300
    4316           0     -2187.673096  -2188.393799  -59173.49218     22.633177
    4317           0     -1908.000366  -2436.085938  -59173.49609     40.808311
    4318           0     -1600.516479  -2648.269043  -59173.49609     54.898022
    4319           0     -1269.704346  -2821.848877  -59173.49609     50.696262
    4320           0      -920.384033  -2954.297607  -59173.49609     38.353863
    4321           0      -557.649109  -3043.683350  -59173.49609     25.506689
    4322           0      -186.788940  -3088.704102  -59173.49609     18.332214
    4323           0     -2821.431641  -1270.631226  -58797.59375    150.091690
    4324           0     -2647.742188  -1601.387695  -58797.59375    158.827805
    4325           0     -2435.457031  -1908.802734  -58797.59375     93.958145
    4326           0     -2187.673340  -2188.393799  -58797.59375     25.176115
    4327           0     -1908.000488  -2436.085938  -58797.59375     37.035007
    4328           0     -1600.516479  -2648.269043  -58797.59375     55.061550
    4329           0     -1269.704346  -2821.848877  -58797.59375     53.381493
    4330           0      -920.384094  -2954.297607  -58797.59375     42.449165
    4331           0      -557.649170  -3043.683350  -58797.59375     30.775747
    4332           0      -186.788940  -3088.704102  -58797.59375     24.314674
    4333           0     -2821.431641  -1270.631226  -58421.68750    146.933685
    4334           0     -2647.742188  -1601.387695  -58421.69140    163.950928
    4335           0     -2435.457031  -1908.802734  -58421.69140    102.387505
    4336           0     -2187.673340  -2188.393799  -58421.69140     30.293415
    4337           0     -1908.000488  -2436.085938  -58421.69140     33.584835
    4338           0     -1600.516479  -2648.269043  -58421.69140     55.199860
    4339           0     -1269.704468  -2821.848877  -58421.69140     56.072124
    4340           0      -920.384155  -2954.297607  -58421.69140     46.661880
    4341           0      -557.649292  -3043.683350  -58421.69140     36.225708
    4342           0      -186.789001  -3088.704102  -58421.68750     30.466581
    4343           0     -2821.431641  -1270.631226  -58045.78125    143.371338
    4344           0     -2647.742188  -1601.387695  -58045.78125    168.443634
    4345           0     -2435.457031  -1908.802734  -58045.78125    110.511238
    4346           0     -2187.673340  -2188.393799  -58045.78125     36.662186
    4347           0     -1908.000488  -2436.085693  -58045.78125     30.548525
    4348           0     -1600.516479  -2648.269043  -58045.78125     55.304626
    4349           0     -1269.704468  -2821.848877  -58045.78125     58.742527
    4350           0      -920.384155  -2954.297607  -58045.78125     50.956802
    4351           0      -557.649353  -3043.683350  -58045.78125     41.788288
    4352           0      -186.789063  -3088.704102  -58045.78125     36.708000
    4353           0     -2821.431641  -1270.631226  -57669.87890    139.524445
    4354           0     -2647.742188  -1601.387695  -57669.87890    172.355667
    4355           0     -2435.457275  -1908.802490  -57669.87890    118.230614
    4356           0     -2187.673340  -2188.393555  -57669.87890     43.490929
    4357           0     -1908.000732  -2436.085449  -57669.87890     28.035378
    4358           0     -1600.516602  -2648.269043  -57669.87890     55.364460
    4359           0     -1269.704468  -2821.848633  -57669.87890     61.375935
    4360           0      -920.384277  -2954.297607  -57669.87890     55.300957
    4361           0      -557.649414  -3043.683350  -57669.87890     47.422459
    4362           0      -186.789063  -3088.704102  -57669.87890     43.001308
    4363           0     -2821.431641  -1270.631226  -57293.97656    135.503998
    4364           0     -2647.742188  -1601.387695  -57293.97656    175.738190
    4365           0     -2435.457275  -1908.802490  -57293.97656    125.490570
    4366           0     -2187.673340  -2188.393555  -57293.97656     50.375263
    4367           0     -1908.000732  -2436.085449  -57293.97656     26.136829
    4368           0     -1600.516602  -2648.268799  -57293.97656     55.377853
    4369           0     -1269.704590  -2821.848633  -57293.97656     63.955086
    4370           0      -920.384277  -2954.297607  -57293.97656     59.668530
    4371           0      -557.649414  -3043.683350  -57293.97656     53.097080
    4372           0      -186.789063  -3088.704102  -57293.97656     49.324001
    4373           0     -2821.431641  -1270.631104  -56918.07421    131.405136
    4374           0     -2647.742188  -1601.387695  -56918.07421    178.645798
    4375           0     -2435.457520  -1908.802490  -56918.07421    132.262497
    4376           0     -2187.673340  -2188.393555  -56918.07421     57.100471
    4377           0     -1908.000732  -2436.085449  -56918.07421     24.919577
    4378           0     -1600.516602  -2648.268799  -56918.07421     55.342537
    4379           0     -1269.704590  -2821.848633  -56918.07421     66.470367
    4380           0      -920.384277  -2954.297363  -56918.07421     64.035332
    4381           0      -557.649414  -3043.683350  -56918.07421     58.789318
    4382           0      -186.789063  -3088.704102  -56918.07421     55.659412
    4383           0     -2821.431641  -1270.631104  -56542.17187    127.313919
    4384           0     -2647.742188  -1601.387451  -56542.17187    181.130585
    4385           0     -2435.457520  -1908.802490  -56542.17187    138.536224
    4386           0     -2187.673340  -2188.393555  -56542.17187     63.547680
    4387           0     -1908.000732  -2436.085449  -56542.17187     24.387348
    4388           0     -1600.516846  -2648.268799  -56542.17187     55.263065
    4389           0     -1269.704834  -2821.848633  -56542.17187     68.913765
    4390           0      -920.384399  -2954.297363  -56542.17187     68.382942
    4391           0      -557.649475  -3043.683105  -56542.17187     64.478859
    4392           0      -186.789063  -3088.704102  -56542.17187     61.993183
    4393           0     -2821.431641  -1270.631104  -56166.26171    123.303848
    4394           0     -2647.742188  -1601.387451  -56166.26171    183.243378
    4395           0     -2435.457520  -1908.802490  -56166.26171    144.313080
    4396           0     -2187.673340  -2188.393555  -56166.26562     69.646080
    4397           0     -1908.000732  -2436.085449  -56166.26562     24.477413
    4398           0     -1600.516846  -2648.268799  -56166.26562     55.144318
    4399           0     -1269.704834  -2821.848633  -56166.26562     71.283791
    4400           0      -920.384521  -2954.297363  -56166.26562     72.694992
    4401           0      -557.649536  -3043.683105  -56166.26562     70.148712
    4402           0      -186.789063  -3088.704102  -56166.26562     68.311562
    4403           0     -2821.431641  -1270.631104  -55790.35937    119.440102
    4404           0     -2647.742188  -1601.387451  -55790.35937    185.031067
    4405           0     -2435.457520  -1908.802490  -55790.35937    149.602219
    4406           0     -2187.673584  -2188.393555  -55790.35937     75.353233
    4407           0     -1908.000854  -2436.085449  -55790.35937     25.068777
    4408           0     -1600.516968  -2648.268799  -55790.35937     54.995872
    4409           0     -1269.704834  -2821.848633  -55790.35937     73.581200
    4410           0      -920.384521  -2954.297363  -55790.35937     76.959923
    4411           0      -557.649536  -3043.683105  -55790.36328     75.783409
    4412           0      -186.789063  -3088.704102  -55790.35937     74.600342
    4413           0     -2821.431641  -1270.631104  -55414.46093    115.778633
    4414           0     -2647.742188  -1601.387451  -55414.46093    186.537613
    4415           0     -2435.457520  -1908.802490  -55414.46093    154.417953
    4416           0     -2187.673584  -2188.393311  -55414.46093     80.643173
    4417           0     -1908.000977  -2436.085449  -55414.46093     26.012581
    4418           0     -1600.517090  -2648.268555  -55414.46093     54.828232
    4419           0     -1269.704834  -2821.848633  -55414.46093     75.812172
    4420           0      -920.384521  -2954.297363  -55414.46093     81.168411
    4421           0      -557.649597  -3043.683105  -55414.46093     81.369141
    4422           0      -186.789063  -3088.704102  -55414.45703     80.845322
    4423           0     -2821.431641  -1270.631104  -55038.55468    112.367462
    4424           0     -2647.742188  -1601.387451  -55038.55468    187.802856
    4425           0     -2435.457520  -1908.802368  -55038.55468    158.777390
    4426           0     -2187.673584  -2188.393311  -55038.55468     85.500984
    4427           0     -1908.000977  -2436.085449  -55038.55468     27.166039
    4428           0     -1600.517090  -2648.268555  -55038.55468     54.655693
    4429           0     -1269.704956  -2821.848633  -55038.55468     77.984909
    4430           0      -920.384644  -2954.297363  -55038.55468     85.315582
    4431           0      -557.649658  -3043.683105  -55038.55468     86.893829
    4432           0      -186.789063  -3088.704102  -55038.55468     87.031281
    4433           0     -2821.431641  -1270.631104  -54662.65234    109.248169
    4434           0     -2647.742188  -1601.387451  -54662.64843    188.863068
    4435           0     -2435.457520  -1908.802124  -54662.64843    162.700394
    4436           0     -2187.673828  -2188.393311  -54662.64843     89.918877
    4437           0     -1908.000977  -2436.085449  -54662.64843     28.399498
    4438           0     -1600.517090  -2648.268555  -54662.64843     54.494164
    4439           0     -1269.705078  -2821.848633  -54662.64843     80.111748
    4440           0      -920.384766  -2954.297363  -54662.64843     89.397820
    4441           0      -557.649658  -3043.683105  -54662.64843     92.345695
    4442           0      -186.789063  -3088.704102  -54662.64843     93.143288
    4443           0     -2821.431641  -1270.631104  -54286.74609    106.455353
    4444           0     -2647.742188  -1601.387451  -54286.74609    189.751816
    4445           0     -2435.457520  -1908.802124  -54286.74609    166.206192
    4446           0     -2187.673828  -2188.393066  -54286.74609     93.896225
    4447           0     -1908.001221  -2436.085449  -54286.74609     29.622858
    4448           0     -1600.517334  -2648.268555  -54286.74609     54.362301
    4449           0     -1269.705078  -2821.848633  -54286.74609     82.207153
    4450           0      -920.384766  -2954.297363  -54286.74609     93.416130
    4451           0      -557.649719  -3043.683105  -54286.74609     97.715759
    4452           0      -186.789063  -3088.704102  -54286.74609     99.166161
    4453           0     -2821.431641  -1270.631104  -53910.84375    104.013367
    4454           0     -2647.742188  -1601.387451  -53910.84375    190.499222
    4455           0     -2435.457520  -1908.802124  -53910.84375    169.313889
    4456           0     -2187.673828  -2188.393066  -53910.84375     97.434517
    4457           0     -1908.001221  -2436.085449  -53910.84375     30.747141
    4458           0     -1600.517334  -2648.268555  -53910.84375     54.280930
    4459           0     -1269.705200  -2821.848633  -53910.84375     84.289375
    4460           0      -920.384888  -2954.297363  -53910.84375     97.372574
    4461           0      -557.649841  -3043.683105  -53910.84765    102.995903
    4462           0      -186.789124  -3088.704102  -53910.84375    105.085083
    4463           0     -2821.431641  -1270.631104  -53534.93750    101.950401
    4464           0     -2647.742188  -1601.387451  -53534.94140    191.131012
    4465           0     -2435.457520  -1908.802124  -53534.94140    172.044083
    4466           0     -2187.673828  -2188.393066  -53534.94140    100.537827
    4467           0     -1908.001221  -2436.085205  -53534.94140     31.741379
    4468           0     -1600.517334  -2648.268555  -53534.94140     54.276981
    4469           0     -1269.705322  -2821.848389  -53534.94140     86.374031
    4470           0      -920.384888  -2954.297363  -53534.94140    101.270958
    4471           0      -557.649902  -3043.683105  -53534.94140    108.177460
    4472           0      -186.789169  -3088.704102  -53534.93750    110.884178
    4473           0     -2821.431641  -1270.631104  -53159.03906    100.277290
    4474           0     -2647.742188  -1601.387451  -53159.03906    191.670975
    4475           0     -2435.457520  -1908.802124  -53159.03906    174.417038
    4476           0     -2187.673828  -2188.393066  -53159.03906    103.210762
    4477           0     -1908.001221  -2436.084961  -53159.03906     32.547115
    4478           0     -1600.517334  -2648.268311  -53159.03906     54.378887
    4479           0     -1269.705322  -2821.848389  -53159.03906     88.479935
    4480           0      -920.385010  -2954.297363  -53159.03906    105.118477
    4481           0      -557.649902  -3043.683105  -53159.03906    113.253319
    4482           0      -186.789169  -3088.704102  -53159.03906    116.548836
    4483           0     -2821.431641  -1270.631104  -52783.13281     99.008827
    4484           0     -2647.742432  -1601.387451  -52783.13281    192.135849
    4485           0     -2435.457764  -1908.802124  -52783.13281    176.459213
    4486           0     -2187.673828  -2188.393066  -52783.13281    105.469193
    4487           0     -1908.001343  -2436.084961  -52783.13281     33.162766
    4488           0     -1600.517578  -2648.268311  -52783.13281     54.604351
    4489           0     -1269.705322  -2821.848389  -52783.13281     90.634933
    4490           0      -920.385010  -2954.297363  -52783.13281    108.918839
    4491           0      -557.649963  -3043.683105  -52783.13281    118.219330
    4492           0      -186.789169  -3088.704102  -52783.13281    122.066055
    4493           0     -2821.431641  -1270.631104  -52407.22656     98.146942
    4494           0     -2647.742432  -1601.387207  -52407.22656    192.548691
    4495           0     -2435.457764  -1908.802124  -52407.22656    178.178848
    4496           0     -2187.674072  -2188.393066  -52407.22656    107.319687
    4497           0     -1908.001465  -2436.084961  -52407.22656     33.585232
    4498           0     -1600.517578  -2648.268311  -52407.22656     55.001717
    4499           0     -1269.705444  -2821.848389  -52407.22656     92.852890
    4500           0      -920.385010  -2954.297363  -52407.22656    112.682701
    4501           0      -557.649963  -3043.683105  -52407.22656    123.070366
    4502           0      -186.789169  -3088.704102  -52407.22656    127.423134
    4503           0     -2821.431641  -1270.631104  -52031.32421     97.691010
    4504           0     -2647.742432  -1601.387207  -52031.32421    192.927444
    4505           0     -2435.457764  -1908.802002  -52031.32421    179.588425
    4506           0     -2187.674072  -2188.392822  -52031.32421    108.776878
    4507           0     -1908.001465  -2436.084961  -52031.32421     33.810127
    4508           0     -1600.517578  -2648.268311  -52031.32421     55.609146
    4509           0     -1269.705444  -2821.848389  -52031.32421     95.153511
    4510           0      -920.385132  -2954.297363  -52031.32421    116.418343
    4511           0      -557.650024  -3043.682861  -52031.32421    127.801888
    4512           0      -186.789169  -3088.704102  -52031.32421    132.609161
    4513           0     -2821.431641  -1270.631104  -51655.42187     97.637993
    4514           0     -2647.742432  -1601.387207  -51655.42578    193.283829
    4515           0     -2435.457764  -1908.802002  -51655.42578    180.712738
    4516           0     -2187.674072  -2188.392822  -51655.42578    109.858772
    4517           0     -1908.001465  -2436.084961  -51655.42187     33.866890
    4518           0     -1600.517700  -2648.268311  -51655.42187     56.455364
    4519           0     -1269.705566  -2821.848389  -51655.42187     97.563797
    4520           0      -920.385132  -2954.297363  -51655.42187    120.131439
    4521           0      -557.650085  -3043.682861  -51655.42187    132.412781
    4522           0      -186.789169  -3088.704102  -51655.42187    137.613159
    4523           0     -2821.431641  -1270.631104  -51279.51562     97.978065
    4524           0     -2647.742432  -1601.387207  -51279.51562    193.631149
    4525           0     -2435.457764  -1908.802002  -51279.51562    181.565613
    4526           0     -2187.674072  -2188.392822  -51279.51562    110.574364
    4527           0     -1908.001465  -2436.084961  -51279.51562     33.795193
    4528           0     -1600.517822  -2648.268066  -51279.51562     57.577732
    4529           0     -1269.705566  -2821.848389  -51279.51562    100.100334
    4530           0      -920.385193  -2954.297119  -51279.51562    123.831955
    4531           0      -557.650085  -3043.682861  -51279.51562    136.899155
    4532           0      -186.789169  -3088.704102  -51279.51562    142.427261
    4533           0     -2821.431641  -1270.631104  -50903.60937     98.699539
    4534           0     -2647.742432  -1601.387085  -50903.60937    193.981369
    4535           0     -2435.458008  -1908.802002  -50903.60937    182.161469
    4536           0     -2187.674316  -2188.392822  -50903.60937    110.944679
    4537           0     -1908.001709  -2436.084961  -50903.60937     33.645756
    4538           0     -1600.517822  -2648.268066  -50903.60937     59.014408
    4539           0     -1269.705566  -2821.848145  -50903.60937    102.780815
    4540           0      -920.385315  -2954.297119  -50903.60937    127.527336
    4541           0      -557.650146  -3043.682861  -50903.60937    141.260330
    4542           0      -186.789169  -3088.704102  -50903.60937    147.043686
    4543           0     -2821.431641  -1270.631104  -50527.71093     99.788124
    4544           0     -2647.742432  -1601.387085  -50527.70703    194.344299
    4545           0     -2435.458008  -1908.801758  -50527.70703    182.513885
    4546           0     -2187.674316  -2188.392822  -50527.70703    110.987991
    4547           0     -1908.001709  -2436.084717  -50527.70703     33.496048
    4548           0     -1600.517944  -2648.268066  -50527.70703     60.796463
    4549           0     -1269.705688  -2821.848145  -50527.70703    105.622162
    4550           0      -920.385376  -2954.297119  -50527.70703    131.224991
    4551           0      -557.650208  -3043.682861  -50527.70703    145.494965
    4552           0      -186.789169  -3088.704102  -50527.71093    151.456970
    4553           0     -2821.431641  -1270.631104  -50151.80468    101.228432
    4554           0     -2647.742432  -1601.387085  -50151.80078    194.728546
    4555           0     -2435.458008  -1908.801758  -50151.80078    182.636581
    4556           0     -2187.674316  -2188.392578  -50151.80078    110.727470
    4557           0     -1908.001709  -2436.084473  -50151.80078     33.437622
    4558           0     -1600.518066  -2648.268066  -50151.80078     62.955170
    4559           0     -1269.705688  -2821.848145  -50151.80078    108.637741
    4560           0      -920.385376  -2954.297119  -50151.80078    134.930466
    4561           0      -557.650208  -3043.682861  -50151.80078    149.603699
    4562           0      -186.789169  -3088.704102  -50151.80468    155.662735
    4563           0     -2821.431641  -1270.630981  -49775.90234    103.004051
    4564           0     -2647.742432  -1601.387085  -49775.90234    195.141663
    4565           0     -2435.458008  -1908.801758  -49775.90234    182.542511
    4566           0     -2187.674316  -2188.392578  -49775.90234    110.187744
    4567           0     -1908.001709  -2436.084473  -49775.90234     33.586960
    4568           0     -1600.518066  -2648.268066  -49775.90234     65.512344
    4569           0     -1269.705811  -2821.848145  -49775.90234    111.840866
    4570           0      -920.385437  -2954.297119  -49775.90234    138.650436
    4571           0      -557.650269  -3043.682861  -49775.90234    153.585846
    4572           0      -186.789169  -3088.704102  -49775.90234    159.658813
    4573           0     -2821.431641  -1270.630981  -49400.00000    105.099251
    4574           0     -2647.742432  -1601.387085  -49400.00000    195.589691
    4575           0     -2435.458008  -1908.801758  -49400.00000    182.244980
    4576           0     -2187.674316  -2188.392578  -49400.00000    109.398102
    4577           0     -1908.001831  -2436.084473  -49400.00000     34.071415
    4578           0     -1600.518066  -2648.268066  -49400.00000     68.488602
    4579           0     -1269.705811  -2821.848145  -49400.00000    115.239571
    4580           0      -920.385559  -2954.297119  -49400.00000    142.386841
    4581           0      -557.650330  -3043.682861  -49400.00000    157.443588
    4582           0      -186.789215  -3088.704102  -49400.00000    163.444138
    4583           0     -2821.431641  -1270.630981  -49024.09375    107.498032
    4584           0     -2647.742432  -1601.386963  -49024.09375    196.078308
    4585           0     -2435.458008  -1908.801758  -49024.09375    181.756714
    4586           0     -2187.674316  -2188.392578  -49024.09375    108.392334
    4587           0     -1908.001953  -2436.084473  -49024.09375     35.024902
    4588           0     -1600.518311  -2648.268066  -49024.08984     71.892891
    4589           0     -1269.706055  -2821.848145  -49024.08984    118.844322
    4590           0      -920.385681  -2954.297119  -49024.08984    146.146408
    4591           0      -557.650452  -3043.682861  -49024.08984    161.176392
    4592           0      -186.789276  -3088.704102  -49024.09375    167.020004
    4593           0     -2821.431641  -1270.630981  -48648.18750    110.186737
    4594           0     -2647.742676  -1601.386963  -48648.18359    196.611252
    4595           0     -2435.458008  -1908.801758  -48648.18359    181.091644
    4596           0     -2187.674316  -2188.392578  -48648.18359    107.209785
    4597           0     -1908.001953  -2436.084473  -48648.18359     36.570358
    4598           0     -1600.518311  -2648.267822  -48648.18359     75.735023
    4599           0     -1269.706055  -2821.848145  -48648.18359    122.655075
    4600           0      -920.385742  -2954.297119  -48648.18359    149.927063
    4601           0      -557.650513  -3043.682861  -48648.18359    164.789948
    4602           0      -186.789276  -3088.704102  -48648.18750    170.388641
    4603           0     -2821.431641  -1270.630981  -48272.28906    113.151550
    4604           0     -2647.742676  -1601.386963  -48272.28515    197.192535
    4605           0     -2435.458008  -1908.801758  -48272.28515    180.263168
    4606           0     -2187.674316  -2188.392578  -48272.28515    105.897827
    4607           0     -1908.001953  -2436.084473  -48272.28515     38.803482
    4608           0     -1600.518311  -2648.267822  -48272.28515     80.012009
    4609           0     -1269.706055  -2821.848145  -48272.28515    126.681778
    4610           0      -920.385742  -2954.297119  -48272.28515    153.737167
    4611           0      -557.650513  -3043.682861  -48272.28515    168.280121
    4612           0      -186.789276  -3088.704102  -48272.28906    173.553467
    4613           0     -2821.431641  -1270.630859  -47896.38671    116.380997
    4614           0     -2647.742676  -1601.386963  -47896.38281    197.825104
    4615           0     -2435.458008  -1908.801514  -47896.38281    179.285370
    4616           0     -2187.674316  -2188.392578  -47896.38281    104.513092
    4617           0     -1908.002075  -2436.084473  -47896.38281     41.787937
    4618           0     -1600.518555  -2648.267578  -47896.38281     84.723442
    4619           0     -1269.706055  -2821.848145  -47896.38281    130.907715
    4620           0      -920.385742  -2954.297119  -47896.38281    157.561783
    4621           0      -557.650574  -3043.682861  -47896.38281    171.656708
    4622           0      -186.789276  -3088.704102  -47896.38281    176.522415
    4623           0     -2821.431641  -1270.630859  -47520.47656    119.865410
    4624           0     -2647.742676  -1601.386963  -47520.47656    198.509171
    4625           0     -2435.458008  -1908.801514  -47520.47656    178.177536
    4626           0     -2187.674805  -2188.392334  -47520.47656    103.115601
    4627           0     -1908.002197  -2436.084473  -47520.47656     45.550346
    4628           0     -1600.518555  -2648.267578  -47520.47656     89.866806
    4629           0     -1269.706177  -2821.848145  -47520.47656    135.348068
    4630           0      -920.385864  -2954.297119  -47520.47656    161.418243
    4631           0      -557.650635  -3043.682861  -47520.47656    174.923660
    4632           0      -186.789276  -3088.704102  -47520.47656    179.298325
    4633           0     -2821.431641  -1270.630859  -47144.57812    123.595276
    4634           0     -2647.742676  -1601.386963  -47144.57812    199.247131
    4635           0     -2435.458008  -1908.801514  -47144.57812    176.955643
    4636           0     -2187.674805  -2188.392334  -47144.57812    101.787933
    4637           0     -1908.002197  -2436.084473  -47144.57812     50.077999
    4638           0     -1600.518677  -2648.267578  -47144.57812     95.430054
    4639           0     -1269.706299  -2821.847900  -47144.57812    139.992783
    4640           0      -920.385925  -2954.297119  -47144.57812    165.296738
    4641           0      -557.650635  -3043.682861  -47144.57812    178.081375
    4642           0      -186.789276  -3088.704102  -47144.57812    181.891678
    4643           0     -2821.431641  -1270.630859  -46768.67968    127.562920
    4644           0     -2647.742676  -1601.386963  -46768.68359    200.039078
    4645           0     -2435.458008  -1908.801514  -46768.68359    175.640121
    4646           0     -2187.674805  -2188.392334  -46768.68359    100.619781
    4647           0     -1908.002197  -2436.084473  -46768.68359     55.355667
    4648           0     -1600.518677  -2648.267578  -46768.68359    101.389824
    4649           0     -1269.706299  -2821.847900  -46768.68359    144.824478
    4650           0      -920.385986  -2954.297119  -46768.68359    169.186142
    4651           0      -557.650696  -3043.682861  -46768.68359    181.130493
    4652           0      -186.789276  -3088.704102  -46768.67968    184.313889
    4653           0     -2821.431641  -1270.630859  -46392.77343    131.762619
    4654           0     -2647.742676  -1601.386841  -46392.77343    200.882904
    4655           0     -2435.458008  -1908.801514  -46392.77343    174.258148
    4656           0     -2187.674805  -2188.392090  -46392.77343     99.710342
    4657           0     -1908.002197  -2436.084473  -46392.77343     61.346581
    4658           0     -1600.518677  -2648.267578  -46392.77343    107.739059
    4659           0     -1269.706299  -2821.847900  -46392.77343    149.853348
    4660           0      -920.386047  -2954.296875  -46392.77343    173.101791
    4661           0      -557.650757  -3043.682861  -46392.77343    184.077484
    4662           0      -186.789276  -3088.704102  -46392.77343    186.572388
    4663           0     -2821.431641  -1270.630859  -46016.86718    136.186462
    4664           0     -2647.742676  -1601.386841  -46016.86328    201.779114
    4665           0     -2435.458008  -1908.801514  -46016.86328    172.835037
    4666           0     -2187.674805  -2188.392090  -46016.86328     99.178383
    4667           0     -1908.002319  -2436.084229  -46016.86328     68.016876
    4668           0     -1600.518799  -2648.267578  -46016.86328    114.464584
    4669           0     -1269.706421  -2821.847900  -46016.86328    155.052689
    4670           0      -920.386047  -2954.296875  -46016.86328    177.023773
    4671           0      -557.650757  -3043.682861  -46016.86328    186.931824
    4672           0      -186.789276  -3088.704102  -46016.86718    188.681229
    4673           0     -2821.431641  -1270.630859  -45640.96093    140.830856
    4674           0     -2647.742676  -1601.386719  -45640.95703    202.724487
    4675           0     -2435.458252  -1908.801514  -45640.96093    171.406769
    4676           0     -2187.674805  -2188.392090  -45640.96093     99.149399
    4677           0     -1908.002441  -2436.083984  -45640.96093     75.328285
    4678           0     -1600.518921  -2648.267578  -45640.96484    121.545876
    4679           0     -1269.706543  -2821.847900  -45640.96484    160.419312
    4680           0      -920.386108  -2954.296875  -45640.96484    180.953781
    4681           0      -557.650818  -3043.682861  -45640.96484    189.694336
    4682           0      -186.789276  -3088.704102  -45640.96484    190.653183
    4683           0     -2821.431641  -1270.630859  -45265.05468    145.687042
    4684           0     -2647.742676  -1601.386719  -45265.05078    203.717453
    4685           0     -2435.458252  -1908.801270  -45265.05078    170.008713
    4686           0     -2187.674805  -2188.392090  -45265.05468     99.755585
    4687           0     -1908.002563  -2436.083984  -45265.05468     83.254295
    4688           0     -1600.519043  -2648.267578  -45265.06250    128.965164
    4689           0     -1269.706543  -2821.847656  -45265.06250    165.934326
    4690           0      -920.386230  -2954.296875  -45265.06250    184.886154
    4691           0      -557.650818  -3043.682861  -45265.06250    192.373260
    4692           0      -186.789276  -3088.704102  -45265.06250    192.501938
    4693           0     -2821.431641  -1270.630859  -44889.15234    150.749237
    4694           0     -2647.742676  -1601.386719  -44889.14843    204.756363
    4695           0     -2435.458496  -1908.801270  -44889.15234    168.694046
    4696           0     -2187.674805  -2188.392090  -44889.15234    101.128983
    4697           0     -1908.002563  -2436.083984  -44889.15234     91.757126
    4698           0     -1600.519043  -2648.267578  -44889.15625    136.703812
    4699           0     -1269.706543  -2821.847656  -44889.15625    171.587524
    4700           0      -920.386230  -2954.296875  -44889.15625    188.813675
    4701           0      -557.650879  -3043.682861  -44889.15625    194.972824
    4702           0      -186.789337  -3088.704102  -44889.15625    194.243103
    4703           0     -2821.431641  -1270.630859  -44513.25000    156.013107
    4704           0     -2647.742676  -1601.386719  -44513.25390    205.833359
    4705           0     -2435.458496  -1908.801270  -44513.25390    167.507950
    4706           0     -2187.674805  -2188.392090  -44513.25390    103.387405
    4707           0     -1908.002563  -2436.083984  -44513.25390    100.821945
    4708           0     -1600.519043  -2648.267578  -44513.25390    144.738831
    4709           0     -1269.706543  -2821.847656  -44513.25390    177.359329
    4710           0      -920.386230  -2954.296875  -44513.25390    192.737137
    4711           0      -557.651001  -3043.682861  -44513.25390    197.500854
    4712           0      -186.789398  -3088.704102  -44513.25000    195.891769
    4713           0     -2821.431641  -1270.630859  -44137.35156    161.463379
    4714           0     -2647.742676  -1601.386719  -44137.34765    206.950546
    4715           0     -2435.458496  -1908.801147  -44137.34765    166.539948
    4716           0     -2187.675049  -2188.392090  -44137.34765    106.646919
    4717           0     -1908.002686  -2436.083984  -44137.34765    110.410416
    4718           0     -1600.519165  -2648.267334  -44137.34765    153.050537
    4719           0     -1269.706665  -2821.847656  -44137.34765    183.241180
    4720           0      -920.386353  -2954.296875  -44137.34765    196.644684
    4721           0      -557.651062  -3043.682861  -44137.34765    199.964493
    4722           0      -186.789398  -3088.704102  -44137.34765    197.463989
    4723           0     -2821.431641  -1270.630859  -43761.44531    167.090378
    4724           0     -2647.742676  -1601.386719  -43761.44531    208.114258
    4725           0     -2435.458496  -1908.801147  -43761.44531    165.817352
    4726           0     -2187.675049  -2188.392090  -43761.44531    110.977737
    4727           0     -1908.002930  -2436.083984  -43761.44531    120.517006
    4728           0     -1600.519287  -2648.267090  -43761.44531    161.608337
    4729           0     -1269.706787  -2821.847656  -43761.44140    189.206909
    4730           0      -920.386353  -2954.296875  -43761.44140    200.541397
    4731           0      -557.651062  -3043.682861  -43761.44140    202.369995
    4732           0      -186.789398  -3088.704102  -43761.44140    198.974442
    4733           0     -2821.431641  -1270.630859  -43385.54296    172.880264
    4734           0     -2647.742676  -1601.386597  -43385.54687    209.302582
    4735           0     -2435.458496  -1908.801025  -43385.54687    165.483093
    4736           0     -2187.675293  -2188.391846  -43385.54296    116.403084
    4737           0     -1908.002930  -2436.083984  -43385.54296    131.098236
    4738           0     -1600.519287  -2648.267090  -43385.54296    170.399490
    4739           0     -1269.706787  -2821.847656  -43385.53906    195.255173
    4740           0      -920.386475  -2954.296875  -43385.53906    204.412918
    4741           0      -557.651123  -3043.682861  -43385.53125    204.725739
    4742           0      -186.789398  -3088.704102  -43385.53515    200.440842
    4743           0     -2821.431641  -1270.630859  -43009.64062    178.814789
    4744           0     -2647.742676  -1601.386597  -43009.64843    210.531708
    4745           0     -2435.458496  -1908.801025  -43009.64062    165.619766
    4746           0     -2187.675293  -2188.391846  -43009.64062    123.018829
    4747           0     -1908.002930  -2436.083984  -43009.64062    142.143097
    4748           0     -1600.519287  -2648.267090  -43009.63671    179.370773
    4749           0     -1269.706787  -2821.847656  -43009.63671    201.342758
    4750           0      -920.386475  -2954.296875  -43009.63281    208.271896
    4751           0      -557.651184  -3043.682861  -43009.62500    207.040512
    4752           0      -186.789398  -3088.704102  -43009.63281    201.877945
    4753           0     -2821.431641  -1270.630859  -42633.73828    184.867371
    4754           0     -2647.742676  -1601.386475  -42633.74218    211.812241
    4755           0     -2435.458496  -1908.801025  -42633.74218    166.318115
    4756           0     -2187.675293  -2188.391846  -42633.73828    130.755814
    4757           0     -1908.002930  -2436.083740  -42633.73828    153.616058
    4758           0     -1600.519409  -2648.267090  -42633.73828    188.559113
    4759           0     -1269.706909  -2821.847656  -42633.73437    207.509354
    4760           0      -920.386475  -2954.296875  -42633.73437    212.103134
    4761           0      -557.651184  -3043.682861  -42633.73437    209.317429
    4762           0      -186.789398  -3088.704102  -42633.73437    203.303360
    4763           0     -2821.431641  -1270.630859  -42257.83203    191.017059
    4764           0     -2647.742676  -1601.386475  -42257.83593    213.143173
    4765           0     -2435.458496  -1908.801025  -42257.83593    167.729553
    4766           0     -2187.675293  -2188.391602  -42257.83593    139.625259
    4767           0     -1908.002930  -2436.083740  -42257.83593    165.478546
    4768           0     -1600.519409  -2648.267090  -42257.83593    197.872604
    4769           0     -1269.707031  -2821.847656  -42257.83593    213.676086
    4770           0      -920.386597  -2954.296875  -42257.83593    215.896515
    4771           0      -557.651245  -3043.682861  -42257.83593    211.578781
    4772           0      -186.789398  -3088.704102  -42257.83593    204.728806
    4773           0     -2821.431641  -1270.630859  -41881.92578    197.224960
    4774           0     -2647.742676  -1601.386475  -41881.92187    214.552750
    4775           0     -2435.458496  -1908.801025  -41881.92187    169.957062
    4776           0     -2187.675293  -2188.391602  -41881.92187    149.592911
    4777           0     -1908.003052  -2436.083740  -41881.92578    177.706619
    4778           0     -1600.519653  -2648.267090  -41881.92578    207.298065
    4779           0     -1269.707153  -2821.847656  -41881.92578    219.859512
    4780           0      -920.386719  -2954.296875  -41881.92578    219.667725
    4781           0      -557.651306  -3043.682861  -41881.92578    213.829132
    4782           0      -186.789398  -3088.704102  -41881.92968    206.167038
    4783           0     -2821.431641  -1270.630859  -41506.02343    203.455185
    4784           0     -2647.742676  -1601.386475  -41506.02343    216.060944
    4785           0     -2435.458496  -1908.800903  -41506.01953    173.149200
    4786           0     -2187.675293  -2188.391602  -41506.01953    160.603638
    4787           0     -1908.003174  -2436.083496  -41506.01953    190.284714
    4788           0     -1600.519653  -2648.267090  -41506.01953    216.849274
    4789           0     -1269.707153  -2821.847656  -41506.01953    226.071671
    4790           0      -920.386841  -2954.296875  -41506.01953    223.433929
    4791           0      -557.651306  -3043.682861  -41506.01562    216.071030
    4792           0      -186.789398  -3088.704102  -41506.01953    207.631393
    4793           0     -2821.431641  -1270.630737  -41130.12500    209.665665
    4794           0     -2647.742676  -1601.386475  -41130.13281    217.706421
    4795           0     -2435.458496  -1908.800903  -41130.13281    177.435226
    4796           0     -2187.675293  -2188.391602  -41130.12890    172.612030
    4797           0     -1908.003174  -2436.083496  -41130.12890    203.169479
    4798           0     -1600.519775  -2648.267090  -41130.12500    226.427704
    4799           0     -1269.707153  -2821.847656  -41130.12500    232.241043
    4800           0      -920.386841  -2954.296875  -41130.12500    227.191345
    4801           0      -557.651367  -3043.682861  -41130.12500    218.328217
    4802           0      -186.789398  -3088.704102  -41130.12500    209.128174
    4803           0     -2821.431641  -1270.630737  -40754.21875    215.799469
    4804           0     -2647.742676  -1601.386475  -40754.22656    219.546173
    4805           0     -2435.458496  -1908.800903  -40754.22656    182.944427
    4806           0     -2187.675293  -2188.391602  -40754.22656    185.554779
    4807           0     -1908.003174  -2436.083496  -40754.22656    216.302261
    4808           0     -1600.519775  -2648.267090  -40754.22656    236.062195
    4809           0     -1269.707275  -2821.847656  -40754.22656    238.415649
    4810           0      -920.386841  -2954.296875  -40754.22656    230.931961
    4811           0      -557.651367  -3043.682861  -40754.22656    220.604050
    4812           0      -186.789398  -3088.704102  -40754.21875    210.666992
    4813           0     -2821.431641  -1270.630737  -40378.31640    221.810669
    4814           0     -2647.742920  -1601.386475  -40378.31640    221.654175
    4815           0     -2435.458740  -1908.800903  -40378.31640    189.776382
    4816           0     -2187.675537  -2188.391602  -40378.31640    199.379044
    4817           0     -1908.003174  -2436.083496  -40378.31640    229.657486
    4818           0     -1600.519775  -2648.267090  -40378.31640    245.695755
    4819           0     -1269.707275  -2821.847656  -40378.31640    244.561951
    4820           0      -920.386963  -2954.296875  -40378.31640    234.680435
    4821           0      -557.651428  -3043.682861  -40378.31640    222.911224
    4822           0      -186.789459  -3088.704102  -40378.31640    212.252579
    4823           0     -2821.431641  -1270.630737  -40002.40625    227.625824
    4824           0     -2647.742920  -1601.386475  -40002.41015    224.127899
    4825           0     -2435.458740  -1908.800781  -40002.41015    198.043091
    4826           0     -2187.675537  -2188.391602  -40002.41015    214.007889
    4827           0     -1908.003174  -2436.083496  -40002.41015    243.177628
    4828           0     -1600.519897  -2648.267090  -40002.41015    255.320999
    4829           0     -1269.707520  -2821.847168  -40002.41015    250.690323
    4830           0      -920.387085  -2954.296631  -40002.41015    238.436630
    4831           0      -557.651550  -3043.682861  -40002.41015    225.256821
    4832           0      -186.789505  -3088.704102  -40002.40625    213.889755
    4833           0     -2821.431641  -1270.630737  -39626.50390    233.209412
    4834           0     -2647.743164  -1601.386353  -39626.50000    227.094406
    4835           0     -2435.458740  -1908.800781  -39626.50000    207.787811
    4836           0     -2187.675537  -2188.391602  -39626.50000    229.387741
    4837           0     -1908.003418  -2436.083496  -39626.50000    256.824249
    4838           0     -1600.520020  -2648.266846  -39626.50000    264.902679
    4839           0     -1269.707520  -2821.847168  -39626.50000    256.796082
    4840           0      -920.387085  -2954.296631  -39626.50000    242.219025
    4841           0      -557.651611  -3043.682861  -39626.50000    227.651703
    4842           0      -186.789505  -3088.704102  -39626.50390    215.577744
    4843           0     -2821.431885  -1270.630615  -39250.59765    238.470459
    4844           0     -2647.743164  -1601.386353  -39250.59375    230.706879
    4845           0     -2435.458740  -1908.800781  -39250.59375    219.099457
    4846           0     -2187.675537  -2188.391602  -39250.59375    245.424500
    4847           0     -1908.003540  -2436.083496  -39250.59375    270.541443
    4848           0     -1600.520020  -2648.266602  -39250.59375    274.433044
    4849           0     -1269.707520  -2821.847168  -39250.59375    262.883820
    4850           0      -920.387085  -2954.296631  -39250.59375    246.035934
    4851           0      -557.651611  -3043.682861  -39250.59375    230.099319
    4852           0      -186.789505  -3088.704102  -39250.59765    217.319321
    4853           0     -2821.431885  -1270.630615  -38874.70312    243.421631
    4854           0     -2647.743164  -1601.386230  -38874.70312    235.164291
    4855           0     -2435.458740  -1908.800537  -38874.70312    231.937683
    4856           0     -2187.675781  -2188.391113  -38874.70312    262.064972
    4857           0     -1908.003540  -2436.083252  -38874.70312    284.288116
    4858           0     -1600.520264  -2648.266602  -38874.70312    283.886658
    4859           0     -1269.707520  -2821.847168  -38874.70312    268.965820
    4860           0      -920.387207  -2954.296631  -38874.69921    249.899643
    4861           0      -557.651672  -3043.682861  -38874.69921    232.609238
    4862           0      -186.789505  -3088.704102  -38874.69921    219.111267
    4863           0     -2821.431885  -1270.630615  -38498.80468    247.952484
    4864           0     -2647.743164  -1601.386230  -38498.80859    240.671524
    4865           0     -2435.458740  -1908.800537  -38498.80859    246.386871
    4866           0     -2187.675781  -2188.391113  -38498.80859    279.194824
    4867           0     -1908.003540  -2436.083252  -38498.80859    298.008514
    4868           0     -1600.520264  -2648.266602  -38498.80468    293.267487
    4869           0     -1269.707520  -2821.847168  -38498.80468    275.045013
    4870           0      -920.387268  -2954.296631  -38498.80468    253.824799
    4871           0      -557.651733  -3043.682861  -38498.80468    235.179947
    4872           0      -186.789505  -3088.704102  -38498.80078    220.955185
    4873           0     -2821.431885  -1270.630615  -38122.89453    252.209732
    4874           0     -2647.743164  -1601.386230  -38122.90234    247.516205
    4875           0     -2435.458984  -1908.800537  -38122.89843    262.287628
    4876           0     -2187.675781  -2188.391113  -38122.89843    296.758575
    4877           0     -1908.003662  -2436.083252  -38122.89843    311.672668
    4878           0     -1600.520264  -2648.266602  -38122.89843    302.559814
    4879           0     -1269.707642  -2821.847168  -38122.89843    281.146545
    4880           0      -920.387329  -2954.296631  -38122.89453    257.812225
    4881           0      -557.651733  -3043.682861  -38122.89453    237.818253
    4882           0      -186.789505  -3088.704102  -38122.89453    222.844742
    4883           0     -2821.431885  -1270.630615  -37746.98828    256.037262
    4884           0     -2647.743164  -1601.386230  -37746.99218    255.893311
    4885           0     -2435.458984  -1908.800537  -37746.98828    279.767090
    4886           0     -2187.675781  -2188.391113  -37746.98828    314.633636
    4887           0     -1908.003662  -2436.083252  -37746.98828    325.226593
    4888           0     -1600.520264  -2648.266602  -37746.98828    311.787140
    4889           0     -1269.707764  -2821.847168  -37746.98828    287.268677
    4890           0      -920.387390  -2954.296631  -37746.98828    261.880981
    4891           0      -557.651733  -3043.682861  -37746.98828    240.517441
    4892           0      -186.789505  -3088.704102  -37746.98828    224.784317
    4893           0     -2821.431885  -1270.630615  -37371.08593    259.905823
    4894           0     -2647.743164  -1601.386230  -37371.08203    266.220520
    4895           0     -2435.458984  -1908.800537  -37371.08203    298.486450
    4896           0     -2187.675781  -2188.391113  -37371.08203    332.745087
    4897           0     -1908.003906  -2436.083008  -37371.08203    338.667236
    4898           0     -1600.520386  -2648.266602  -37371.07812    320.939880
    4899           0     -1269.707764  -2821.847168  -37371.07812    293.449707
    4900           0      -920.387390  -2954.296631  -37371.07812    266.019012
    4901           0      -557.651855  -3043.682861  -37371.07812    243.286743
    4902           0      -186.789505  -3088.704102  -37371.08203    226.765686
    4903           0     -2821.431885  -1270.630615  -36995.18359    263.472229
    4904           0     -2647.743164  -1601.386230  -36995.17968    278.461761
    4905           0     -2435.458984  -1908.800537  -36995.17968    318.687988
    4906           0     -2187.675781  -2188.391113  -36995.17968    351.010498
    4907           0     -1908.003906  -2436.083008  -36995.17578    351.954376
    4908           0     -1600.520508  -2648.266602  -36995.17187    330.068787
    4909           0     -1269.707764  -2821.847168  -36995.17187    299.670197
    4910           0      -920.387390  -2954.296631  -36995.17187    270.246979
    4911           0      -557.651855  -3043.682861  -36995.17187    246.109634
    4912           0      -186.789505  -3088.704102  -36995.17578    228.796021
    4913           0     -2821.431885  -1270.630615  -36619.27734    267.965454
    4914           0     -2647.743164  -1601.386230  -36619.28125    293.402893
    4915           0     -2435.458984  -1908.800537  -36619.27734    339.802399
    4916           0     -2187.675781  -2188.391113  -36619.27734    369.296265
    4917           0     -1908.003906  -2436.083008  -36619.27734    365.119873
    4918           0     -1600.520508  -2648.266602  -36619.27734    339.155640
    4919           0     -1269.707886  -2821.847168  -36619.27343    305.981781
    4920           0      -920.387512  -2954.296631  -36619.27343    274.545166
    4921           0      -557.651855  -3043.682617  -36619.27343    249.006454
    4922           0      -186.789505  -3088.704102  -36619.27734    230.865662
    4923           0     -2821.431885  -1270.630615  -36243.37500    272.264252
    4924           0     -2647.743164  -1601.386230  -36243.37500    310.033783
    4925           0     -2435.458984  -1908.800415  -36243.37500    362.126251
    4926           0     -2187.676025  -2188.391113  -36243.37500    387.609283
    4927           0     -1908.003906  -2436.083008  -36243.37500    378.133179
    4928           0     -1600.520508  -2648.266602  -36243.37500    348.260529
    4929           0     -1269.708008  -2821.847168  -36243.37500    312.318115
    4930           0      -920.387634  -2954.296631  -36243.37500    278.923309
    4931           0      -557.651978  -3043.682617  -36243.37500    251.929565
    4932           0      -186.789505  -3088.704102  -36243.37500    232.975128
    4933           0     -2821.431885  -1270.630615  -35867.46875    279.504089
    4934           0     -2647.743164  -1601.386230  -35867.46093    330.783447
    4935           0     -2435.458984  -1908.800415  -35867.46093    385.348358
    4936           0     -2187.676270  -2188.391113  -35867.46093    405.987518
    4937           0     -1908.004028  -2436.083008  -35867.46484    391.236664
    4938           0     -1600.520752  -2648.266602  -35867.46484    357.458649
    4939           0     -1269.708008  -2821.847168  -35867.46484    318.873138
    4940           0      -920.387634  -2954.296631  -35867.46484    283.447113
    4941           0      -557.651978  -3043.682617  -35867.46484    254.996277
    4942           0      -186.789551  -3088.704102  -35867.46875    235.182373
    4943           0     -2821.431885  -1270.630615  -35491.56250    285.548737
    4944           0     -2647.743164  -1601.385986  -35491.55468    350.591827
    4945           0     -2435.458984  -1908.800415  -35491.55468    408.068604
    4946           0     -2187.676270  -2188.391113  -35491.55468    423.475220
    4947           0     -1908.004150  -2436.083008  -35491.55468    403.527374
    4948           0     -1600.520752  -2648.266357  -35491.55468    366.150665
    4949           0     -1269.708008  -2821.847168  -35491.55468    324.990753
    4950           0      -920.387695  -2954.296631  -35491.55859    287.667938
    4951           0      -557.652100  -3043.682617  -35491.55859    257.753967
    4952           0      -186.789612  -3088.704102  -35491.56250    237.168701
    4953           0     -2821.431885  -1270.630615  -35115.65625    299.301514
    4954           0     -2647.743164  -1601.385986  -35115.64843    380.211548
    4955           0     -2435.458984  -1908.800293  -35115.64843    435.729584
    4956           0     -2187.676270  -2188.390869  -35115.64843    444.463013
    4957           0     -1908.004150  -2436.082764  -35115.64843    418.744690
    4958           0     -1600.520874  -2648.266357  -35115.64843    377.157471
    4959           0     -1269.708008  -2821.847168  -35115.64843    333.227722
    4960           0      -920.387695  -2954.296631  -35115.64843    293.484253
    4961           0      -557.652161  -3043.682617  -35115.64843    261.969940
    4962           0      -186.789612  -3088.704102  -35115.65625    240.344101
    4963           0     -2821.431885  -1270.630615  -34739.75781    305.589844
    4964           0     -2647.743164  -1601.385986  -34739.75390    394.998932
    4965           0     -2435.458984  -1908.800293  -34739.75390    450.049133
    4966           0     -2187.676270  -2188.390869  -34739.75390    454.087830
    4967           0     -1908.004150  -2436.082764  -34739.75390    423.814056
    4968           0     -1600.520874  -2648.266113  -34739.75390    380.262268
    4969           0     -1269.708252  -2821.847168  -34739.75390    334.504852
    4970           0      -920.387756  -2954.296387  -34739.75390    293.724457
    4971           0      -557.652161  -3043.682617  -34739.75390    261.268707
    4972           0      -186.789612  -3088.704102  -34739.75781    239.271713
    4973           0     -2821.431885  -1270.630615  -34363.85937    331.613708
    4974           0     -2647.743164  -1601.385986  -34363.86328    448.110138
    4975           0     -2435.458984  -1908.800293  -34363.86328    502.890106
    4976           0     -2187.676270  -2188.390625  -34363.86328    496.581512
    4977           0     -1908.004150  -2436.082764  -34363.86328    458.797333
    4978           0     -1600.520874  -2648.266113  -34363.86328    408.325745
    4979           0     -1269.708252  -2821.846924  -34363.86328    357.376160
    4980           0      -920.387878  -2954.296387  -34363.86328    312.074402
    4981           0      -557.652222  -3043.682617  -34363.86328    276.364441
    4982           0      -186.789612  -3088.704102  -34363.85937    252.275909
    4983           0     -2821.431885  -1270.630615  -33987.95312    336.006653
    4984           0     -2647.743164  -1601.385864  -33987.95312    429.211761
    4985           0     -2435.458984  -1908.800293  -33987.95312    470.663483
    4986           0     -2187.676270  -2188.390625  -33987.95312    460.334198
    4987           0     -1908.004395  -2436.082764  -33987.95312    422.424683
    4988           0     -1600.520996  -2648.266113  -33987.95312    374.742889
    4989           0     -1269.708374  -2821.846924  -33987.95312    327.033997
    4990           0      -920.387939  -2954.296387  -33987.95312    284.856415
    4991           0      -557.652283  -3043.682617  -33987.95312    251.681686
    4992           0      -186.789612  -3088.704102  -33987.95312    229.399368
    4993           0      3088.698242    186.835236  -33612.22265    437.703400
    4994           0      3043.657227    557.778564  -33612.22265    420.410583
    4995           0      2954.232910    920.583740  -33612.22265    390.774994
    4996           0      2821.730225   1269.962524  -33612.22265    362.044006
    4997           0      2648.081055   1600.822510  -33612.22265    342.724701
    4998           0      2435.816406   1908.340698  -33612.22265    336.732086
    4999           0      2188.029785   2188.033447  -33612.22265    344.242584
    5000           0      1908.335938   2435.820068  -33612.22265    362.405182
    5001           0      1600.816650   2648.084717  -33612.22265    386.539612
    5002           0      1269.956299   2821.732910  -33612.22265    411.363434
    5003           0       920.578003   2954.234619  -33612.22265    432.016510
    5004           0       557.774414   3043.657959  -33612.22265    444.728912
    5005           0       186.833771   3088.698730  -33612.22265    447.061035
    5006           0      3088.698242    186.836029  -33236.66796    468.937286
    5007           0      3043.656738    557.780640  -33236.66796    454.041534
    5008           0      2954.231934    920.586426  -33236.66796    423.829102
    5009           0      2821.729004   1269.965088  -33236.66796    394.194183
    5010           0      2648.079590   1600.824951  -33236.66796    374.267456
    5011           0      2435.815186   1908.342407  -33236.66796    368.721649
    5012           0      2188.028809   2188.034424  -33236.66796    377.593689
    5013           0      1908.335693   2435.820313  -33236.66796    397.847443
    5014           0      1600.816895   2648.084473  -33236.66796    424.344025
    5015           0      1269.957275   2821.732910  -33236.66796    451.371368
    5016           0       920.579468   2954.234375  -33236.66796    473.689941
    5017           0       557.775757   3043.657959  -33236.66796    487.250275
    5018           0       186.834488   3088.698242  -33236.66796    489.464752
    5019           0      3088.698242    186.835999  -32861.11328    429.124969
    5020           0      3043.656738    557.780518  -32861.11328    419.621979
    5021           0      2954.231934    920.586304  -32861.11328    395.245270
    5022           0      2821.729004   1269.965088  -32861.11328    369.817535
    5023           0      2648.079590   1600.824951  -32861.11328    352.921600
    5024           0      2435.815430   1908.342407  -32861.11328    348.617981
    5025           0      2188.028809   2188.034424  -32861.11328    357.276672
    5026           0      1908.335693   2435.820313  -32861.11328    375.946747
    5027           0      1600.816895   2648.084473  -32861.11328    400.066986
    5028           0      1269.957275   2821.732910  -32861.11328    424.427155
    5029           0       920.579468   2954.234375  -32861.11328    444.376129
    5030           0       557.775757   3043.657959  -32861.11328    456.314819
    5031           0       186.834488   3088.698242  -32861.11328    457.982666
    5032           0      3088.698242    186.835999  -32485.55664    420.002075
    5033           0      3043.656738    557.780518  -32485.55664    413.735657
    5034           0      2954.231934    920.586304  -32485.55664    391.660828
    5035           0      2821.729004   1269.965088  -32485.55664    368.198090
    5036           0      2648.079590   1600.824951  -32485.55664    352.558899
    5037           0      2435.815430   1908.342285  -32485.55664    349.283142
    5038           0      2188.028809   2188.034424  -32485.55664    358.433807
    5039           0      1908.335693   2435.820313  -32485.55664    377.270416
    5040           0      1600.816895   2648.084473  -32485.55664    401.147522
    5041           0      1269.957275   2821.732910  -32485.55664    425.064514
    5042           0       920.579468   2954.234375  -32485.55664    444.454376
    5043           0       557.775757   3043.657959  -32485.55664    455.908905
    5044           0       186.834488   3088.698242  -32485.55664    457.262268
    5045           0      3088.698242    186.835968  -32110.00000    400.166840
    5046           0      3043.656738    557.780457  -32110.00000    398.157806
    5047           0      2954.231934    920.586182  -32110.00000    380.047821
    5048           0      2821.729004   1269.964966  -32110.00000    359.386444
    5049           0      2648.079590   1600.824829  -32110.00000    345.757629
    5050           0      2435.815430   1908.342285  -32110.00000    343.480133
    5051           0      2188.028809   2188.034424  -32110.00000    352.852722
    5052           0      1908.335693   2435.820313  -32110.00000    371.097198
    5053           0      1600.816895   2648.084473  -32110.00000    393.911896
    5054           0      1269.957153   2821.732910  -32110.00000    416.497131
    5055           0       920.579346   2954.234375  -32110.00000    434.647156
    5056           0       557.775696   3043.657959  -32110.00000    445.167572
    5057           0       186.834412   3088.698242  -32110.00000    446.108551
    5058           0      3088.698242    186.835968  -31734.44531    384.009430
    5059           0      3043.656738    557.780457  -31734.44531    385.528534
    5060           0      2954.231934    920.586121  -31734.44531    370.725891
    5061           0      2821.729004   1269.964844  -31734.44531    352.662933
    5062           0      2648.079590   1600.824829  -31734.44531    340.769501
    5063           0      2435.815430   1908.342285  -31734.44531    339.545532
    5064           0      2188.028809   2188.034424  -31734.44531    349.212036
    5065           0      1908.335693   2435.820313  -31734.44531    367.161713
    5066           0      1600.816895   2648.084473  -31734.44531    389.186371
    5067           0      1269.957153   2821.732910  -31734.44531    410.772034
    5068           0       920.579346   2954.234375  -31734.44531    427.912445
    5069           0       557.775574   3043.657959  -31734.44531    437.671570
    5070           0       186.834335   3088.698242  -31734.44531    438.235229
    5071           0      3088.698242    186.835938  -31358.88867    366.858154
    5072           0      3043.656738    557.780396  -31358.88867    372.186005
    5073           0      2954.232178    920.586121  -31358.88867    360.879578
    5074           0      2821.729492   1269.964844  -31358.88867    345.500854
    5075           0      2648.079834   1600.824707  -31358.88867    335.451721
    5076           0      2435.815430   1908.342285  -31358.88867    335.227051
    5077           0      2188.028809   2188.034424  -31358.88867    345.147644
    5078           0      1908.335693   2435.820313  -31358.88867    362.671783
    5079           0      1600.816895   2648.084473  -31358.88867    383.815552
    5080           0      1269.957153   2821.732910  -31358.88867    404.278564
    5081           0       920.579224   2954.234375  -31358.88867    420.345520
    5082           0       557.775513   3043.657959  -31358.88867    429.284912
    5083           0       186.834335   3088.698242  -31358.88867    429.467041
    5084           0      3088.698242    186.835922  -30983.33398    349.918671
    5085           0      3043.656738    557.780334  -30983.33398    359.019379
    5086           0      2954.232178    920.586060  -30983.33398    351.139618
    5087           0      2821.729492   1269.964844  -30983.33398    338.495148
    5088           0      2648.079834   1600.824707  -30983.33398    330.267883
    5089           0      2435.815430   1908.342285  -30983.33398    331.065155
    5090           0      2188.028809   2188.034424  -30983.33398    341.231415
    5091           0      1908.335693   2435.820313  -30983.33398    358.364655
    5092           0      1600.816895   2648.084473  -30983.33398    378.642242
    5093           0      1269.957153   2821.732910  -30983.33398    398.026886
    5094           0       920.579224   2954.234375  -30983.33398    413.037567
    5095           0       557.775513   3043.657959  -30983.33398    421.183350
    5096           0       186.834335   3088.698242  -30983.33398    420.985535
    5097           0      3088.698242    186.835907  -30607.77734    332.963074
    5098           0      3043.656738    557.780273  -30607.77734    345.806946
    5099           0      2954.232178    920.585938  -30607.77734    341.439728
    5100           0      2821.729492   1269.964722  -30607.77734    331.516388
    5101           0      2648.079834   1600.824707  -30607.77734    325.161591
    5102           0      2435.815430   1908.342285  -30607.77734    326.942352
    5103           0      2188.028809   2188.034424  -30607.77734    337.346588
    5104           0      1908.335693   2435.820313  -30607.77734    354.054688
    5105           0      1600.816895   2648.084473  -30607.77734    373.460785
    5106           0      1269.957153   2821.732910  -30607.77734    391.748138
    5107           0       920.579224   2954.234375  -30607.77734    405.706207
    5108           0       557.775513   3043.657959  -30607.77734    413.054077
    5109           0       186.834335   3088.698242  -30607.77734    412.483307
    5110           0      3088.698242    186.835876  -30232.22265    316.047546
    5111           0      3043.656738    557.780273  -30232.22265    332.525299
    5112           0      2954.232178    920.585938  -30232.22265    331.745300
    5113           0      2821.729492   1269.964722  -30232.22265    324.602905
    5114           0      2648.080078   1600.824707  -30232.22265    320.114716
    5115           0      2435.815430   1908.342041  -30232.22265    322.900421
    5116           0      2188.029053   2188.034180  -30232.22265    333.507751
    5117           0      1908.335693   2435.820313  -30232.22265    349.790619
    5118           0      1600.816895   2648.084473  -30232.22265    368.311249
    5119           0      1269.957153   2821.732910  -30232.22265    385.511536
    5120           0       920.579224   2954.234375  -30232.22265    398.417908
    5121           0       557.775513   3043.657959  -30232.22265    404.977692
    5122           0       186.834335   3088.698242  -30232.22265    404.034882
    5123           0      3088.698242    186.835876  -29856.66796    299.321564
    5124           0      3043.656738    557.780151  -29856.66796    319.163574
    5125           0      2954.232178    920.585815  -29856.66796    322.070801
    5126           0      2821.729492   1269.964600  -29856.66796    317.740051
    5127           0      2648.080078   1600.824463  -29856.66796    315.146698
    5128           0      2435.815430   1908.342041  -29856.66796    318.912781
    5129           0      2188.029053   2188.034180  -29856.66796    329.721527
    5130           0      1908.335693   2435.820313  -29856.66796    345.554993
    5131           0      1600.816895   2648.084473  -29856.66796    363.188599
    5132           0      1269.957153   2821.732910  -29856.66796    379.296783
    5133           0       920.579224   2954.234375  -29856.66796    391.160095
    5134           0       557.775513   3043.657959  -29856.66796    396.935089
    5135           0       186.834335   3088.698242  -29856.66796    395.626740
    5136           0      3088.698242    186.835846  -29481.10937    282.867523
    5137           0      3043.656738    557.780151  -29481.10937    305.723907
    5138           0      2954.232178    920.585815  -29481.10937    312.379608
    5139           0      2821.729492   1269.964600  -29481.10937    310.949341
    5140           0      2648.080078   1600.824463  -29481.10937    310.250183
    5141           0      2435.815430   1908.342041  -29481.10937    315.000397
    5142           0      2188.029053   2188.034180  -29481.10937    325.976440
    5143           0      1908.335693   2435.820313  -29481.10937    341.352570
    5144           0      1600.816895   2648.084473  -29481.10937    358.090179
    5145           0      1269.957031   2821.732910  -29481.10937    373.111267
    5146           0       920.579102   2954.234375  -29481.10937    383.934937
    5147           0       557.775513   3043.657959  -29481.10937    388.934540
    5148           0       186.834335   3088.698242  -29481.10937    387.263367
    5149           0      3088.698242    186.835831  -29105.55468    266.842957
    5150           0      3043.656738    557.780090  -29105.55468    292.221222
    5151           0      2954.232178    920.585693  -29105.55468    302.667542
    5152           0      2821.729492   1269.964478  -29105.55468    304.215118
    5153           0      2648.080078   1600.824463  -29105.55468    305.439453
    5154           0      2435.815430   1908.342041  -29105.55468    311.153656
    5155           0      2188.029053   2188.034180  -29105.55468    322.288147
    5156           0      1908.335693   2435.820313  -29105.55468    337.178284
    5157           0      1600.816895   2648.084473  -29105.55468    353.017059
    5158           0      1269.957031   2821.732910  -29105.55468    366.950562
    5159           0       920.579041   2954.234375  -29105.55468    376.743774
    5160           0       557.775513   3043.657959  -29105.55468    380.974396
    5161           0       186.834335   3088.698242  -29105.55468    378.947906
    5162           0      3088.698242    186.835815  -28729.99804    251.374313
    5163           0      3043.656738    557.780029  -28729.99804    278.693573
    5164           0      2954.232178    920.585632  -28729.99804    292.919678
    5165           0      2821.729492   1269.964355  -28729.99804    297.540527
    5166           0      2648.080078   1600.824341  -28729.99804    300.705353
    5167           0      2435.815430   1908.342041  -28729.99804    307.377930
    5168           0      2188.029053   2188.034180  -28729.99804    318.643677
    5169           0      1908.335693   2435.820313  -28729.99804    333.037415
    5170           0      1600.816895   2648.084473  -28729.99804    347.965149
    5171           0      1269.957031   2821.732910  -28729.99804    360.816376
    5172           0       920.579041   2954.234375  -28729.99804    369.585449
    5173           0       557.775391   3043.657959  -28729.99804    373.057709
    5174           0       186.834259   3088.698242  -28729.99804    370.680267
    5175           0      3088.698242    186.835785  -28354.44335    236.608429
    5176           0      3043.656738    557.780029  -28354.44335    265.181000
    5177           0      2954.232178    920.585632  -28354.44335    283.134796
    5178           0      2821.729492   1269.964355  -28354.44335    290.912872
    5179           0      2648.080078   1600.824341  -28354.44335    296.061188
    5180           0      2435.815430   1908.342041  -28354.44335    303.675201
    5181           0      2188.029053   2188.034180  -28354.44335    315.049042
    5182           0      1908.335693   2435.820313  -28354.44335    328.923615
    5183           0      1600.816895   2648.084473  -28354.44335    342.936035
    5184           0      1269.956909   2821.732910  -28354.44335    354.705658
    5185           0       920.578979   2954.234375  -28354.44335    362.461487
    5186           0       557.775269   3043.657959  -28354.44335    365.184204
    5187           0       186.834198   3088.698242  -28354.44335    362.462921
    5188           0      3088.698242    186.835785  -27978.88867    222.682663
    5189           0      3043.656738    557.780029  -27978.88867    251.745209
    5190           0      2954.232422    920.585571  -27978.88867    273.318634
    5191           0      2821.729736   1269.964355  -27978.88867    284.330841
    5192           0      2648.080078   1600.824219  -27978.88867    291.504120
    5193           0      2435.815674   1908.341919  -27978.88867    300.045441
    5194           0      2188.029053   2188.034180  -27978.88867    311.499420
    5195           0      1908.335693   2435.820313  -27978.88867    324.839935
    5196           0      1600.816895   2648.084473  -27978.88867    337.926270
    5197           0      1269.956787   2821.732910  -27978.88867    348.619843
    5198           0       920.578857   2954.234375  -27978.88867    355.371307
    5199           0       557.775208   3043.657959  -27978.88867    357.356659
    5200           0       186.834198   3088.698242  -27978.88867    354.298248
    5201           0      3088.698242    186.835754  -27603.33398    209.732132
    5202           0      3043.656738    557.779907  -27603.33398    238.437851
    5203           0      2954.232422    920.585571  -27603.33398    263.475311
    5204           0      2821.729736   1269.964355  -27603.33398    277.788025
    5205           0      2648.080078   1600.824219  -27603.33398    287.030457
    5206           0      2435.815674   1908.341675  -27603.33398    296.489349
    5207           0      2188.029297   2188.034180  -27603.33398    307.999054
    5208           0      1908.335693   2435.820313  -27603.33398    320.780426
    5209           0      1600.816895   2648.084473  -27603.33398    332.937103
    5210           0      1269.956787   2821.732910  -27603.33398    342.556915
    5211           0       920.578857   2954.234375  -27603.33398    348.316650
    5212           0       557.775208   3043.657959  -27603.33398    349.575531
    5213           0       186.834198   3088.698242  -27603.33398    346.188324
    5214           0      3088.698242    186.835754  -27227.77734    197.886597
    5215           0      3043.656738    557.779846  -27227.77734    225.323898
    5216           0      2954.232422    920.585449  -27227.77734    253.621613
    5217           0      2821.729736   1269.964233  -27227.77734    271.280670
    5218           0      2648.080078   1600.824219  -27227.77734    282.635864
    5219           0      2435.815918   1908.341675  -27227.77734    293.007263
    5220           0      2188.029297   2188.034180  -27227.77734    304.541412
    5221           0      1908.335815   2435.820313  -27227.77734    316.747833
    5222           0      1600.816895   2648.084473  -27227.77734    327.964966
    5223           0      1269.956787   2821.732910  -27227.77734    336.517914
    5224           0       920.578857   2954.234375  -27227.77734    341.296295
    5225           0       557.775208   3043.657959  -27227.77734    341.842834
    5226           0       186.834198   3088.698242  -27227.77734    338.135040
    5227           0      3088.698242    186.835724  -26852.22265    187.252441
    5228           0      3043.656738    557.779785  -26852.22265    212.467865
    5229           0      2954.232422    920.585388  -26852.22265    243.788116
    5230           0      2821.729736   1269.964111  -26852.22265    264.813141
    5231           0      2648.080078   1600.823975  -26852.22265    278.316956
    5232           0      2435.815918   1908.341675  -26852.22265    289.594849
    5233           0      2188.029297   2188.034180  -26852.22265    301.129517
    5234           0      1908.335815   2435.820313  -26852.22265    312.737366
    5235           0      1600.816895   2648.084473  -26852.22265    323.010223
    5236           0      1269.956787   2821.732910  -26852.22265    330.500732
    5237           0       920.578796   2954.234375  -26852.22265    334.312164
    5238           0       557.775208   3043.657959  -26852.22265    334.159851
    5239           0       186.834198   3088.698242  -26852.22265    330.140686
    5240           0      3088.698242    186.835693  -26476.66796    177.932419
    5241           0      3043.656738    557.779785  -26476.66796    199.935242
    5242           0      2954.232422    920.585327  -26476.66796    233.983200
    5243           0      2821.729736   1269.964111  -26476.66796    258.385223
    5244           0      2648.080078   1600.823975  -26476.66796    274.071960
    5245           0      2435.815918   1908.341675  -26476.66796    286.254059
    5246           0      2188.029297   2188.034180  -26476.66796    297.760986
    5247           0      1908.335815   2435.820313  -26476.66796    308.748566
    5248           0      1600.816895   2648.084473  -26476.66796    318.069855
    5249           0      1269.956787   2821.732910  -26476.66796    324.505554
    5250           0       920.578735   2954.234375  -26476.66796    327.363220
    5251           0       557.775208   3043.657959  -26476.66796    326.527710
    5252           0       186.834198   3088.698242  -26476.66796    322.207031
    5253           0      3088.698242    186.835693  -26101.11132    169.993027
    5254           0      3043.656738    557.779724  -26101.11132    187.794037
    5255           0      2954.232422    920.585327  -26101.11132    224.245804
    5256           0      2821.729736   1269.963989  -26101.11132    252.002182
    5257           0      2648.080078   1600.823975  -26101.11132    269.891907
    5258           0      2435.815918   1908.341675  -26101.11132    282.974335
    5259           0      2188.029297   2188.034180  -26101.11132    294.433868
    5260           0      1908.335815   2435.820313  -26101.11132    304.779755
    5261           0      1600.816895   2648.084473  -26101.11132    313.144379
    5262           0      1269.956787   2821.732910  -26101.11132    318.532318
    5263           0       920.578735   2954.234375  -26101.11132    320.452271
    5264           0       557.775208   3043.657959  -26101.11132    318.949371
    5265           0       186.834198   3088.698242  -26101.11132    314.337891
    5266           0      3088.698242    186.835663  -25725.55468    163.479202
    5267           0      3043.656738    557.779724  -25725.55468    176.108673
    5268           0      2954.232422    920.585144  -25725.55468    214.598343
    5269           0      2821.729736   1269.963989  -25725.55468    245.672226
    5270           0      2648.080322   1600.823975  -25725.55468    265.778259
    5271           0      2435.815918   1908.341675  -25725.55468    279.754700
    5272           0      2188.029297   2188.034180  -25725.55468    291.142242
    5273           0      1908.335815   2435.820313  -25725.55468    300.829376
    5274           0      1600.816895   2648.084473  -25725.55468    308.231415
    5275           0      1269.956787   2821.732910  -25725.55468    312.580902
    5276           0       920.578735   2954.234375  -25725.55468    313.578949
    5277           0       557.775208   3043.657959  -25725.55468    311.426208
    5278           0       186.834198   3088.698242  -25725.55468    306.535065
    5279           0      3088.698242    186.835663  -25349.99804    158.389587
    5280           0      3043.656738    557.779663  -25349.99804    164.942688
    5281           0      2954.232422    920.585144  -25349.99804    205.069107
    5282           0      2821.729736   1269.963867  -25349.99804    239.404358
    5283           0      2648.080322   1600.823975  -25349.99804    261.727386
    5284           0      2435.815918   1908.341553  -25349.99804    276.586304
    5285           0      2188.029297   2188.034180  -25349.99804    287.882599
    5286           0      1908.335693   2435.820313  -25349.99804    296.893677
    5287           0      1600.816772   2648.084473  -25349.99804    303.330444
    5288           0      1269.956787   2821.732910  -25349.99804    306.650055
    5289           0       920.578735   2954.234375  -25349.99804    306.743988
    5290           0       557.775146   3043.657959  -25349.99804    303.959625
    5291           0       186.834137   3088.698242  -25349.99804    298.800385
    5292           0      3088.698242    186.835632  -24974.44335    154.689438
    5293           0      3043.656738    557.779541  -24974.44335    154.359970
    5294           0      2954.232422    920.585083  -24974.44335    195.687881
    5295           0      2821.729736   1269.963867  -24974.44335    233.206863
    5296           0      2648.080566   1600.823853  -24974.44335    257.734436
    5297           0      2435.815918   1908.341553  -24974.44335    273.462463
    5298           0      2188.029297   2188.034180  -24974.44335    284.648163
    5299           0      1908.335693   2435.820313  -24974.44335    292.970215
    5300           0      1600.816650   2648.084473  -24974.44335    298.439209
    5301           0      1269.956787   2821.732910  -24974.44335    300.740784
    5302           0       920.578735   2954.234375  -24974.44335    299.948456
    5303           0       557.775085   3043.657959  -24974.44335    296.551147
    5304           0       186.834061   3088.698242  -24974.44335    291.136749
    5305           0      3088.698242    186.835602  -24598.88867    152.298859
    5306           0      3043.656738    557.779480  -24598.88867    144.421188
    5307           0      2954.232422    920.584961  -24598.88867    186.485367
    5308           0      2821.729736   1269.963867  -24598.88867    227.094757
    5309           0      2648.080566   1600.823730  -24598.88867    253.797058
    5310           0      2435.815918   1908.341431  -24598.88867    270.375793
    5311           0      2188.029297   2188.034180  -24598.88867    281.433105
    5312           0      1908.335693   2435.820313  -24598.88867    289.054108
    5313           0      1600.816650   2648.084473  -24598.88867    293.557434
    5314           0      1269.956787   2821.732910  -24598.88867    294.851318
    5315           0       920.578735   2954.234375  -24598.88867    293.192719
    5316           0       557.775085   3043.657959  -24598.88867    289.203644
    5317           0       186.834061   3088.698242  -24598.88867    283.545868
    5318           0      3088.698242    186.835602  -24223.33398    151.105820
    5319           0      3043.656982    557.779480  -24223.33398    135.186661
    5320           0      2954.232422    920.584961  -24223.33398    177.489868
    5321           0      2821.729736   1269.963745  -24223.33398    221.080338
    5322           0      2648.080566   1600.823730  -24223.33398    249.917862
    5323           0      2435.815918   1908.341309  -24223.33398    267.319672
    5324           0      2188.029297   2188.033936  -24223.33398    278.228363
    5325           0      1908.335693   2435.820313  -24223.33398    285.141418
    5326           0      1600.816650   2648.084473  -24223.33398    288.682159
    5327           0      1269.956787   2821.732910  -24223.33398    288.984222
    5328           0       920.578674   2954.234375  -24223.33398    286.479492
    5329           0       557.775024   3043.657959  -24223.33398    281.917664
    5330           0       186.834061   3088.698242  -24223.33398    276.030090
    5331           0      3088.698242    186.835571  -23847.77734    150.969772
    5332           0      3043.656982    557.779419  -23847.77734    126.710815
    5333           0      2954.232422    920.584900  -23847.77734    168.729462
    5334           0      2821.729736   1269.963623  -23847.77734    215.173645
    5335           0      2648.080566   1600.823730  -23847.77734    246.090927
    5336           0      2435.815918   1908.341309  -23847.77734    264.286255
    5337           0      2188.029297   2188.033936  -23847.77734    275.027039
    5338           0      1908.335693   2435.820313  -23847.77734    281.226227
    5339           0      1600.816650   2648.084473  -23847.77734    283.811371
    5340           0      1269.956665   2821.732910  -23847.77734    283.137115
    5341           0       920.578552   2954.234375  -23847.77734    279.807983
    5342           0       557.774963   3043.657959  -23847.77734    274.695160
    5343           0       186.834061   3088.698242  -23847.77734    268.592346
    5344           0      3088.698242    186.835571  -23472.22265    151.730377
    5345           0      3043.657227    557.779419  -23472.22265    119.048668
    5346           0      2954.232910    920.584839  -23472.22265    160.229507
    5347           0      2821.729980   1269.963623  -23472.22265    209.392044
    5348           0      2648.080566   1600.823730  -23472.22265    242.318985
    5349           0      2435.815918   1908.341309  -23472.22265    261.265778
    5350           0      2188.029297   2188.033936  -23472.22265    271.818970
    5351           0      1908.335693   2435.820313  -23472.22265    277.303101
    5352           0      1600.816650   2648.084473  -23472.22265    278.942871
    5353           0      1269.956543   2821.732910  -23472.22265    277.311340
    5354           0       920.578491   2954.234863  -23472.22265    273.180328
    5355           0       557.774963   3043.657959  -23472.22265    267.538330
    5356           0       186.834061   3088.698242  -23472.22265    261.234741
    5357           0      3088.698242    186.835541  -23096.66601    153.230957
    5358           0      3043.657227    557.779358  -23096.66601    112.238312
    5359           0      2954.232910    920.584839  -23096.66601    152.015778
    5360           0      2821.729980   1269.963623  -23096.66601    203.746170
    5361           0      2648.080566   1600.823608  -23096.66601    238.599686
    5362           0      2435.815918   1908.341309  -23096.66601    258.252869
    5363           0      2188.029297   2188.033936  -23096.66601    268.596466
    5364           0      1908.335693   2435.820313  -23096.66601    273.363617
    5365           0      1600.816650   2648.084473  -23096.66601    274.074310
    5366           0      1269.956543   2821.732910  -23096.66601    271.506744
    5367           0       920.578491   2954.234863  -23096.66601    266.597687
    5368           0       557.774963   3043.657959  -23096.66601    260.449097
    5369           0       186.834061   3088.698242  -23096.66601    253.958221
    5370           0      3088.698242    186.835526  -22721.11132    155.310806
    5371           0      3043.657227    557.779297  -22721.11132    106.313034
    5372           0      2954.232910    920.584717  -22721.11132    144.113739
    5373           0      2821.729980   1269.963501  -22721.11132    198.251022
    5374           0      2648.080566   1600.823486  -22721.11132    234.934464
    5375           0      2435.816162   1908.341309  -22721.11132    255.237030
    5376           0      2188.029541   2188.033691  -22721.11132    265.347595
    5377           0      1908.335693   2435.820313  -22721.11132    269.403473
    5378           0      1600.816650   2648.084473  -22721.11132    269.202698
    5379           0      1269.956543   2821.732910  -22721.11132    265.722107
    5380           0       920.578491   2954.234863  -22721.11132    260.061157
    5381           0       557.774963   3043.657959  -22721.11132    253.430710
    5382           0       186.834061   3088.698242  -22721.11132    246.767593
    5383           0      3088.698242    186.835510  -22345.55468    157.822906
    5384           0      3043.657227    557.779236  -22345.55468    101.288223
    5385           0      2954.232910    920.584656  -22345.55468    136.545929
    5386           0      2821.729980   1269.963379  -22345.55468    192.916489
    5387           0      2648.080566   1600.823486  -22345.55468    231.322342
    5388           0      2435.816162   1908.341309  -22345.55468    252.216507
    5389           0      2188.029541   2188.033691  -22345.55468    262.067993
    5390           0      1908.335693   2435.820313  -22345.55468    265.413055
    5391           0      1600.816650   2648.084473  -22345.55468    264.323151
    5392           0      1269.956543   2821.732910  -22345.55468    259.959198
    5393           0       920.578491   2954.234863  -22345.55468    253.573456
    5394           0       557.774963   3043.657959  -22345.55468    246.483978
    5395           0       186.834061   3088.698242  -22345.55468    239.663544
    5396           0      3088.698242    186.835480  -21970.00000    160.634384
    5397           0      3043.657227    557.779236  -21970.00000     97.157951
    5398           0      2954.232910    920.584595  -21970.00000    129.332397
    5399           0      2821.729980   1269.963379  -21970.00000    187.757462
    5400           0      2648.080566   1600.823364  -21970.00000    227.759689
    5401           0      2435.816162   1908.341309  -21970.00000    249.175781
    5402           0      2188.029541   2188.033691  -21970.00000    258.743561
    5403           0      1908.335693   2435.820313  -21970.00000    261.384491
    5404           0      1600.816650   2648.084473  -21970.00000    259.432678
    5405           0      1269.956543   2821.732910  -21970.00000    254.215988
    5406           0       920.578491   2954.234863  -21970.00000    247.134872
    5407           0       557.774902   3043.657959  -21970.00000    239.611923
    5408           0       186.833984   3088.698242  -21970.00000    232.648697
    5409           0      3088.698242    186.835480  -21594.44335    163.628586
    5410           0      3043.657227    557.779175  -21594.44335     93.893112
    5411           0      2954.232910    920.584534  -21594.44335    122.493233
    5412           0      2821.729980   1269.963379  -21594.44335    182.780579
    5413           0      2648.080566   1600.823364  -21594.44335    224.250748
    5414           0      2435.816162   1908.341064  -21594.44335    246.115082
    5415           0      2188.029541   2188.033691  -21594.44335    255.364731
    5416           0      1908.335693   2435.820313  -21594.44335    257.309967
    5417           0      1600.816650   2648.084473  -21594.44335    254.526367
    5418           0      1269.956543   2821.732910  -21594.44335    248.492447
    5419           0       920.578491   2954.234863  -21594.44335    240.747421
    5420           0       557.774780   3043.657959  -21594.44335    232.815292
    5421           0       186.833908   3088.698242  -21594.44335    225.726471
    5422           0      3088.698242    186.835449  -21218.88867    166.703568
    5423           0      3043.657227    557.779114  -21218.88867     91.441711
    5424           0      2954.232910    920.584473  -21218.88867    116.046135
    5425           0      2821.729980   1269.963257  -21218.88867    177.997421
    5426           0      2648.080566   1600.823364  -21218.88867    220.790665
    5427           0      2435.816162   1908.341064  -21218.88867    243.021957
    5428           0      2188.029541   2188.033691  -21218.88867    251.927444
    5429           0      1908.335693   2435.820313  -21218.88867    253.184113
    5430           0      1600.816650   2648.084473  -21218.88867    249.598999
    5431           0      1269.956543   2821.732910  -21218.88867    242.787323
    5432           0       920.578430   2954.234863  -21218.88867    234.412613
    5433           0       557.774780   3043.657959  -21218.88867    226.097488
    5434           0       186.833908   3088.698242  -21218.88867    218.898117
    5435           0      3088.698242    186.835434  -20843.33203    169.773972
    5436           0      3043.657227    557.779053  -20843.33203     89.728188
    5437           0      2954.232910    920.584412  -20843.33203    110.001152
    5438           0      2821.729980   1269.963135  -20843.33203    173.419113
    5439           0      2648.080566   1600.823242  -20843.33203    217.382370
    5440           0      2435.816406   1908.340942  -20843.33203    239.888321
    5441           0      2188.029541   2188.033691  -20843.33203    248.418610
    5442           0      1908.335693   2435.820313  -20843.33203    248.997421
    5443           0      1600.816650   2648.084473  -20843.33203    244.646973
    5444           0      1269.956543   2821.732910  -20843.33203    237.099350
    5445           0       920.578308   2954.234863  -20843.33203    228.131424
    5446           0       557.774719   3043.657959  -20843.33203    219.460251
    5447           0       186.833908   3088.698242  -20843.33203    212.163803
    5448           0      3088.698242    186.835419  -20467.77734    172.768204
    5449           0      3043.657227    557.779053  -20467.77734     88.656403
    5450           0      2954.232910    920.584351  -20467.77734    104.376396
    5451           0      2821.729980   1269.963135  -20467.77734    169.047028
    5452           0      2648.080811   1600.823242  -20467.77734    214.020660
    5453           0      2435.816406   1908.340942  -20467.77734    236.716232
    5454           0      2188.029541   2188.033691  -20467.77734    244.832764
    5455           0      1908.335693   2435.820313  -20467.77734    244.740952
    5456           0      1600.816650   2648.084473  -20467.77734    239.665070
    5457           0      1269.956543   2821.732910  -20467.77734    231.427170
    5458           0       920.578247   2954.234863  -20467.77734    221.905197
    5459           0       557.774658   3043.657959  -20467.77734    212.905243
    5460           0       186.833908   3088.698242  -20467.77734    205.526993
    5461           0      3088.698242    186.835388  -20092.22265    175.624756
    5462           0      3043.657227    557.778931  -20092.22265     88.121628
    5463           0      2954.232910    920.584351  -20092.22265     99.180695
    5464           0      2821.729980   1269.963135  -20092.22265    164.885361
    5465           0      2648.080811   1600.823242  -20092.22265    210.700256
    5466           0      2435.816406   1908.340942  -20092.22265    233.485291
    5467           0      2188.029541   2188.033691  -20092.22265    241.157333
    5468           0      1908.335693   2435.820313  -20092.22265    240.410629
    5469           0      1600.816650   2648.084473  -20092.22265    234.648453
    5470           0      1269.956543   2821.732910  -20092.22265    225.769363
    5471           0       920.578247   2954.234863  -20092.22265    215.734619
    5472           0       557.774658   3043.657959  -20092.22265    206.434845
    5473           0       186.833908   3088.698242  -20092.22265    198.990997
    5474           0      3088.698242    186.835388  -19716.66796    178.293945
    5475           0      3043.657227    557.778931  -19716.66796     88.012154
    5476           0      2954.232910    920.584229  -19716.66796     94.415680
    5477           0      2821.729980   1269.963013  -19716.66796    160.939468
    5478           0      2648.080811   1600.822998  -19716.66796    207.426056
    5479           0      2435.816406   1908.340942  -19716.66796    230.199463
    5480           0      2188.029541   2188.033691  -19716.66796    237.386505
    5481           0      1908.335693   2435.820313  -19716.66796    235.996948
    5482           0      1600.816650   2648.084473  -19716.66796    229.591843
    5483           0      1269.956543   2821.732910  -19716.66796    220.123917
    5484           0       920.578247   2954.234863  -19716.66796    209.620056
    5485           0       557.774658   3043.657959  -19716.66796    200.049545
    5486           0       186.833908   3088.698242  -19716.66796    192.555893
    5487           0      3088.698242    186.835358  -19341.11132    180.733749
    5488           0      3043.657227    557.778870  -19341.11132     88.215897
    5489           0      2954.232910    920.584167  -19341.11132     90.087265
    5490           0      2821.729980   1269.963013  -19341.11132    157.213684
    5491           0      2648.080811   1600.822998  -19341.11132    204.189529
    5492           0      2435.816406   1908.340942  -19341.11132    226.848511
    5493           0      2188.029541   2188.033691  -19341.11132    233.516632
    5494           0      1908.335693   2435.820313  -19341.11132    231.495163
    5495           0      1600.816650   2648.084473  -19341.11132    224.492386
    5496           0      1269.956543   2821.732910  -19341.11132    214.489120
    5497           0       920.578247   2954.234863  -19341.11132    203.562790
    5498           0       557.774658   3043.657959  -19341.11132    193.753525
    5499           0       186.833908   3088.698242  -19341.11132    186.225510
    5500           0      3088.698242    186.835358  -18965.55468    182.908264
    5501           0      3043.657227    557.778870  -18965.55468     88.629105
    5502           0      2954.232910    920.584106  -18965.55468     86.193748
    5503           0      2821.729980   1269.962891  -18965.55468    153.704086
    5504           0      2648.080811   1600.822998  -18965.55468    200.984161
    5505           0      2435.816406   1908.340942  -18965.55468    223.424759
    5506           0      2188.029785   2188.033691  -18965.55468    229.538300
    5507           0      1908.335815   2435.820313  -18965.55468    226.900131
    5508           0      1600.816650   2648.084473  -18965.55468    219.344742
    5509           0      1269.956543   2821.732910  -18965.55468    208.864807
    5510           0       920.578247   2954.234863  -18965.55468    197.564407
    5511           0       557.774658   3043.657959  -18965.55468    187.546829
    5512           0       186.833908   3088.698242  -18965.55468    180.000610
    5513           0      3088.698242    186.835327  -18589.99804    184.787811
    5514           0      3043.657227    557.778748  -18589.99804     89.156204
    5515           0      2954.232910    920.583984  -18589.99804     82.727699
    5516           0      2821.730225   1269.962891  -18589.99804    150.409943
    5517           0      2648.081055   1600.822998  -18589.99804    197.810181
    5518           0      2435.816406   1908.340820  -18589.99804    219.922775
    5519           0      2188.029785   2188.033447  -18589.99804    225.444931
    5520           0      1908.335938   2435.820068  -18589.99804    222.206696
    5521           0      1600.816650   2648.084473  -18589.99804    214.145844
    5522           0      1269.956543   2821.732910  -18589.99804    203.245331
    5523           0       920.578247   2954.234863  -18589.99804    191.621796
    5524           0       557.774597   3043.657959  -18589.99804    181.431442
    5525           0       186.833832   3088.698242  -18589.99804    173.883469
    5526           0      3088.698242    186.835297  -18214.44531    186.347839
    5527           0      3043.657227    557.778748  -18214.44531     89.711769
    5528           0      2954.232910    920.583984  -18214.44531     79.677452
    5529           0      2821.730225   1269.962769  -18214.44531    147.324219
    5530           0      2648.081055   1600.822998  -18214.44531    194.658691
    5531           0      2435.816406   1908.340820  -18214.44531    216.334869
    5532           0      2188.029785   2188.033447  -18214.44531    221.231750
    5533           0      1908.335938   2435.820068  -18214.44531    217.410126
    5534           0      1600.816650   2648.084473  -18214.44531    208.893982
    5535           0      1269.956421   2821.733154  -18214.44531    197.632401
    5536           0       920.578186   2954.234863  -18214.44531    185.738297
    5537           0       557.774536   3043.657959  -18214.44531    175.409714
    5538           0       186.833771   3088.698242  -18214.44531    167.874771
    5539           0      3088.698242    186.835297  -17838.88867    187.567719
    5540           0      3043.657227    557.778687  -17838.88867     90.219849
    5541           0      2954.232910    920.583923  -17838.88867     77.029846
    5542           0      2821.730225   1269.962646  -17838.88867    144.444244
    5543           0      2648.081055   1600.822754  -17838.88867    191.524628
    5544           0      2435.816406   1908.340576  -17838.88867    212.655029
    5545           0      2188.029785   2188.033447  -17838.88867    216.893768
    5546           0      1908.335938   2435.820068  -17838.88867    212.506821
    5547           0      1600.816650   2648.084473  -17838.88867    203.584869
    5548           0      1269.956299   2821.733154  -17838.88867    192.023071
    5549           0       920.578125   2954.234863  -17838.88867    179.912231
    5550           0       557.774536   3043.657959  -17838.88867    169.481384
    5551           0       186.833771   3088.698242  -17838.88867    161.976334
    5552           0      3088.698242    186.835266  -17463.33203    188.428223
    5553           0      3043.657227    557.778687  -17463.33203     90.619133
    5554           0      2954.232910    920.583862  -17463.33203     74.762657
    5555           0      2821.730225   1269.962646  -17463.33203    141.761414
    5556           0      2648.081055   1600.822632  -17463.33203    188.402130
    5557           0      2435.816406   1908.340576  -17463.33203    208.878586
    5558           0      2188.029785   2188.033447  -17463.33203    212.424545
    5559           0      1908.335938   2435.820068  -17463.33203    207.495300
    5560           0      1600.816650   2648.084473  -17463.33203    198.215622
    5561           0      1269.956299   2821.733154  -17463.33203    186.415390
    5562           0       920.578125   2954.234863  -17463.33203    174.143158
    5563           0       557.774536   3043.657959  -17463.33203    163.646057
    5564           0       186.833771   3088.698242  -17463.33203    156.189438
    5565           0      3088.698242    186.835251  -17087.77734    188.913696
    5566           0      3043.657227    557.778564  -17087.77734     90.855835
    5567           0      2954.232910    920.583862  -17087.77734     72.852600
    5568           0      2821.730225   1269.962524  -17087.77734    139.264740
    5569           0      2648.081055   1600.822632  -17087.77734    185.282867
    5570           0      2435.816406   1908.340576  -17087.77734    204.998978
    5571           0      2188.029785   2188.033447  -17087.77734    207.824295
    5572           0      1908.335938   2435.820068  -17087.77734    202.371414
    5573           0      1600.816650   2648.084473  -17087.77734    192.785370
    5574           0      1269.956299   2821.733154  -17087.77734    180.811401
    5575           0       920.578125   2954.234863  -17087.77734    168.433731
    5576           0       557.774536   3043.657959  -17087.77734    157.905670
    5577           0       186.833771   3088.698242  -17087.77734    150.514374
    5578           0      3088.698242    186.835220  -16712.22265    189.011139
    5579           0      3043.657227    557.778564  -16712.22265     90.884430
    5580           0      2954.232910    920.583740  -16712.22265     71.273682
    5581           0      2821.730225   1269.962524  -16712.22265    136.944595
    5582           0      2648.081055   1600.822632  -16712.22265    182.156723
    5583           0      2435.816406   1908.340576  -16712.22265    201.007065
    5584           0      2188.029785   2188.033447  -16712.22265    203.084869
    5585           0      1908.335938   2435.820068  -16712.22265    197.134933
    5586           0      1600.816650   2648.084717  -16712.22265    187.295181
    5587           0      1269.956299   2821.733398  -16712.22265    175.206482
    5588           0       920.578064   2954.234863  -16712.22265    162.780029
    5589           0       557.774475   3043.657959  -16712.22265    152.260834
    5590           0       186.833771   3088.698242  -16712.22265    144.952133
    5591           0      3088.698242    186.835205  -16336.66601    188.706161
    5592           0      3043.657227    557.778503  -16336.66601     90.670059
    5593           0      2954.232910    920.583679  -16336.66601     70.001282
    5594           0      2821.730225   1269.962402  -16336.66601    134.788498
    5595           0      2648.081055   1600.822632  -16336.66601    179.020599
    5596           0      2435.816650   1908.340576  -16336.66601    196.904465
    5597           0      2188.029785   2188.033447  -16336.66601    198.207626
    5598           0      1908.335938   2435.820068  -16336.66601    191.786118
    5599           0      1600.816650   2648.084717  -16336.66601    181.741989
    5600           0      1269.956299   2821.733398  -16336.66601    169.601791
    5601           0       920.578003   2954.234863  -16336.66601    157.183197
    5602           0       557.774353   3043.657959  -16336.66601    146.710709
    5603           0       186.833771   3088.698242  -16336.66601    139.502762
    5604           0      3088.698242    186.835175  -15961.11035    187.987381
    5605           0      3043.657227    557.778442  -15961.11035     90.184937
    5606           0      2954.232910    920.583618  -15961.11035     69.000061
    5607           0      2821.730469   1269.962402  -15961.11035    132.782303
    5608           0      2648.081055   1600.822510  -15961.11035    175.863190
    5609           0      2435.816650   1908.340576  -15961.11035    192.682205
    5610           0      2188.029785   2188.033447  -15961.11035    193.191193
    5611           0      1908.335938   2435.820068  -15961.11035    186.324982
    5612           0      1600.816650   2648.084717  -15961.11035    176.129135
    5613           0      1269.956299   2821.733398  -15961.11035    163.997437
    5614           0       920.578003   2954.234863  -15961.11035    151.643143
    5615           0       557.774353   3043.657959  -15961.11035    141.256714
    5616           0       186.833771   3088.698242  -15961.11035    134.167862
    5617           0      3088.698242    186.835175  -15585.55468    186.846039
    5618           0      3043.657227    557.778442  -15585.55468     89.401291
    5619           0      2954.232910    920.583557  -15585.55468     68.246246
    5620           0      2821.730469   1269.962402  -15585.55468    130.912201
    5621           0      2648.081055   1600.822510  -15585.55468    172.671768
    5622           0      2435.816650   1908.340576  -15585.55468    188.333115
    5623           0      2188.029785   2188.033447  -15585.55468    188.032730
    5624           0      1908.335938   2435.820068  -15585.55468    180.753143
    5625           0      1600.816650   2648.084717  -15585.55468    170.456299
    5626           0      1269.956177   2821.733398  -15585.55468    158.393753
    5627           0       920.577881   2954.234863  -15585.55468    146.159454
    5628           0       557.774353   3043.657959  -15585.55468    135.897736
    5629           0       186.833771   3088.698242  -15585.55468    128.947098
    5630           0      3088.698242    186.835144  -15209.99902    185.270142
    5631           0      3043.657227    557.778320  -15209.99902     88.304497
    5632           0      2954.232910    920.583496  -15209.99902     67.713516
    5633           0      2821.730469   1269.962158  -15209.99902    129.164276
    5634           0      2648.081299   1600.822388  -15209.99902    169.442535
    5635           0      2435.816895   1908.340576  -15209.99902    183.859558
    5636           0      2188.029785   2188.033447  -15209.99902    182.734131
    5637           0      1908.335938   2435.820068  -15209.99902    175.069290
    5638           0      1600.816650   2648.084717  -15209.99902    164.725494
    5639           0      1269.956055   2821.733398  -15209.99902    152.791061
    5640           0       920.577759   2954.234863  -15209.99902    140.731384
    5641           0       557.774292   3043.657959  -15209.99902    130.633743
    5642           0       186.833694   3088.698242  -15209.99902    123.840111
    5643           0      3088.698242    186.835129  -14834.44335    183.251053
    5644           0      3043.657227    557.778259  -14834.44335     86.881409
    5645           0      2954.232910    920.583374  -14834.44335     67.377792
    5646           0      2821.730469   1269.962158  -14834.44335    127.519096
    5647           0      2648.081299   1600.822266  -14834.44335    166.163651
    5648           0      2435.816895   1908.340576  -14834.44335    179.256516
    5649           0      2188.030029   2188.033447  -14834.44335    177.296768
    5650           0      1908.335938   2435.820068  -14834.44335    169.281570
    5651           0      1600.816650   2648.084717  -14834.44335    158.939636
    5652           0      1269.956055   2821.733398  -14834.44335    147.190048
    5653           0       920.577759   2954.234863  -14834.44335    135.359055
    5654           0       557.774170   3043.657959  -14834.44335    125.463623
    5655           0       186.833618   3088.698242  -14834.44335    118.847046
    5656           0      3088.698242    186.835114  -14458.88867    180.781204
    5657           0      3043.657227    557.778259  -14458.88867     85.123100
    5658           0      2954.232910    920.583374  -14458.88867     67.218178
    5659           0      2821.730469   1269.962158  -14458.88867    125.962746
    5660           0      2648.081299   1600.822266  -14458.88867    162.826462
    5661           0      2435.816895   1908.340332  -14458.88867    174.520477
    5662           0      2188.030029   2188.033203  -14458.88867    171.722473
    5663           0      1908.336182   2435.820068  -14458.88867    163.391266
    5664           0      1600.816650   2648.084717  -14458.88867    153.101410
    5665           0      1269.956055   2821.733398  -14458.88867    141.592041
    5666           0       920.577759   2954.234863  -14458.88867    130.041931
    5667           0       557.774170   3043.657959  -14458.88867    120.387444
    5668           0       186.833618   3088.698242  -14458.88867    113.967125
    5669           0      3088.698242    186.835083  -14083.33300    177.850861
    5670           0      3043.657227    557.778198  -14083.33300     83.028282
    5671           0      2954.232910    920.583374  -14083.33300     67.217819
    5672           0      2821.730469   1269.962036  -14083.33300    124.476097
    5673           0      2648.081299   1600.822266  -14083.33300    159.423355
    5674           0      2435.816895   1908.340332  -14083.33300    169.649857
    5675           0      2188.030029   2188.033203  -14083.33300    166.012634
    5676           0      1908.336182   2435.820068  -14083.33300    157.401657
    5677           0      1600.816650   2648.084717  -14083.33300    147.213409
    5678           0      1269.956055   2821.733398  -14083.33300    135.998718
    5679           0       920.577759   2954.234863  -14083.33300    124.779991
    5680           0       557.774170   3043.657959  -14083.33300    115.403969
    5681           0       186.833618   3088.698242  -14083.33300    109.200432
    5682           0      3088.698242    186.835083  -13707.77734    174.452377
    5683           0      3043.657227    557.778198  -13707.77734     80.599144
    5684           0      2954.232910    920.583252  -13707.77734     67.363281
    5685           0      2821.730469   1269.962036  -13707.77734    123.044411
    5686           0      2648.081299   1600.822144  -13707.77734    155.943115
    5687           0      2435.816895   1908.340210  -13707.77734    164.644165
    5688           0      2188.030029   2188.033203  -13707.77734    160.176941
    5689           0      1908.336182   2435.820068  -13707.77734    151.321350
    5690           0      1600.816650   2648.084717  -13707.77734    141.280090
    5691           0      1269.956055   2821.733398  -13707.77734    130.411530
    5692           0       920.577759   2954.234863  -13707.77734    119.573212
    5693           0       557.774170   3043.657959  -13707.77734    110.512703
    5694           0       186.833618   3088.698242  -13707.77734    104.546196
    5695           0      3088.698242    186.835052  -13332.22168    170.580383
    5696           0      3043.657227    557.778137  -13332.22168     77.841850
    5697           0      2954.232910    920.583252  -13332.22168     67.645676
    5698           0      2821.730469   1269.962036  -13332.22168    121.649605
    5699           0      2648.081299   1600.822144  -13332.22168    152.381317
    5700           0      2435.816895   1908.340210  -13332.22168    159.506973
    5701           0      2188.030029   2188.033203  -13332.22168    154.216003
    5702           0      1908.336182   2435.820068  -13332.22168    145.153305
    5703           0      1600.816650   2648.084717  -13332.22168    135.306549
    5704           0      1269.956055   2821.733398  -13332.22168    124.832207
    5705           0       920.577759   2954.234863  -13332.22168    114.421021
    5706           0       557.774109   3043.657959  -13332.22168    105.712669
    5707           0       186.833618   3088.698242  -13332.22168    100.003815
    5708           0      3088.698242    186.835052  -12956.66796    166.226181
    5709           0      3043.657227    557.778076  -12956.66796     74.774376
    5710           0      2954.232910    920.583191  -12956.66796     68.057526
    5711           0      2821.730469   1269.961914  -12956.66796    120.274834
    5712           0      2648.081543   1600.822021  -12956.66796    148.725586
    5713           0      2435.816895   1908.340210  -12956.66796    154.237686
    5714           0      2188.030029   2188.033203  -12956.66796    148.138107
    5715           0      1908.336182   2435.820068  -12956.66796    138.905334
    5716           0      1600.816650   2648.084717  -12956.66796    129.296280
    5717           0      1269.956055   2821.733398  -12956.66796    119.262993
    5718           0       920.577637   2954.234863  -12956.66796    109.323471
    5719           0       557.774048   3043.657959  -12956.66796    101.002975
    5720           0       186.833618   3088.698242  -12956.66796     95.572510
    5721           0      3088.698242    186.835022  -12581.11328    161.385834
    5722           0      3043.657227    557.778015  -12581.11328     71.421982
    5723           0      2954.232910    920.583069  -12581.11328     68.596542
    5724           0      2821.730469   1269.961914  -12581.11328    118.904419
    5725           0      2648.081543   1600.822021  -12581.11328    144.975143
    5726           0      2435.816895   1908.340210  -12581.11328    148.841446
    5727           0      2188.030029   2188.033203  -12581.11328    141.950851
    5728           0      1908.336182   2435.820068  -12581.11328    132.585876
    5729           0      1600.816650   2648.084717  -12581.11328    123.255371
    5730           0      1269.956055   2821.733398  -12581.11328    113.706833
    5731           0       920.577637   2954.234863  -12581.11328    104.281090
    5732           0       557.774048   3043.657959  -12581.11328     96.383278
    5733           0       186.833618   3088.698242  -12581.11328     91.253448
    5734           0      3088.698242    186.834991  -12205.55566    156.059372
    5735           0      3043.657227    557.777954  -12205.55566     67.816444
    5736           0      2954.233154    920.583008  -12205.55566     69.259346
    5737           0      2821.730713   1269.961914  -12205.55566    117.523788
    5738           0      2648.081543   1600.822021  -12205.55566    141.123032
    5739           0      2435.816895   1908.340210  -12205.55566    143.324493
    5740           0      2188.030029   2188.033203  -12205.55566    135.665176
    5741           0      1908.336182   2435.820068  -12205.55566    126.201485
    5742           0      1600.816650   2648.084717  -12205.55566    117.188782
    5743           0      1269.955933   2821.733398  -12205.55566    108.165474
    5744           0       920.577515   2954.234863  -12205.55566     99.294220
    5745           0       557.774048   3043.657959  -12205.55566     91.853371
    5746           0       186.833618   3088.698242  -12205.55566     87.045944
    5747           0      3088.698242    186.834991  -11830.00000    150.244186
    5748           0      3043.657227    557.777893  -11830.00000     64.010185
    5749           0      2954.233154    920.582947  -11830.00000     70.047813
    5750           0      2821.730713   1269.961670  -11830.00000    116.118340
    5751           0      2648.081543   1600.822021  -11830.00000    137.164185
    5752           0      2435.816895   1908.340210  -11830.00000    137.690613
    5753           0      2188.030029   2188.033203  -11830.00000    129.290695
    5754           0      1908.336182   2435.820068  -11830.00000    119.761513
    5755           0      1600.816650   2648.084717  -11830.00000    111.101578
    5756           0      1269.955933   2821.733398  -11830.00000    102.641342
    5757           0       920.577515   2954.234863  -11830.00000     94.362617
    5758           0       557.773987   3043.658203  -11830.00000     87.413063
    5759           0       186.833557   3088.698486  -11830.00000     82.949875
    5760           0      3088.698242    186.834961  -11454.44335    143.941238
    5761           0      3043.657227    557.777893  -11454.44335     60.077713
    5762           0      2954.233154    920.582886  -11454.44335     70.962379
    5763           0      2821.730713   1269.961670  -11454.44335    114.673172
    5764           0      2648.081543   1600.821777  -11454.44335    133.099182
    5765           0      2435.816895   1908.340088  -11454.44335    131.952637
    5766           0      2188.030273   2188.033203  -11454.44335    122.836304
    5767           0      1908.336182   2435.820068  -11454.44335    113.273735
    5768           0      1600.816650   2648.084717  -11454.44335    104.999168
    5769           0      1269.955933   2821.733398  -11454.44335     97.136185
    5770           0       920.577515   2954.234863  -11454.44335     89.486656
    5771           0       557.773926   3043.658203  -11454.44335     83.062187
    5772           0       186.833481   3088.698730  -11454.44335     78.966362
    5773           0      3088.698242    186.834961  -11078.88867    137.159744
    5774           0      3043.657227    557.777832  -11078.88867     56.116756
    5775           0      2954.233154    920.582886  -11078.88867     72.003685
    5776           0      2821.730713   1269.961670  -11078.88867    113.176971
    5777           0      2648.081543   1600.821777  -11078.88867    128.925888
    5778           0      2435.816895   1908.340088  -11078.88867    126.118698
    5779           0      2188.030273   2188.033203  -11078.88867    116.318565
    5780           0      1908.336182   2435.820068  -11078.88867    106.748878
    5781           0      1600.816650   2648.084717  -11078.88867     98.886040
    5782           0      1269.955933   2821.733398  -11078.88867     91.652695
    5783           0       920.577515   2954.234863  -11078.88867     84.667786
    5784           0       557.773926   3043.658203  -11078.88867     78.801414
    5785           0       186.833481   3088.698730  -11078.88867     75.096031
    5786           0      3088.698242    186.834930  -10703.33300    129.912857
    5787           0      3043.657227    557.777832  -10703.33300     52.265568
    5788           0      2954.233398    920.582825  -10703.33300     73.171326
    5789           0      2821.730957   1269.961548  -10703.33300    111.619545
    5790           0      2648.081543   1600.821655  -10703.33300    124.650154
    5791           0      2435.816895   1908.339844  -10703.33300    120.200333
    5792           0      2188.030273   2188.033203  -10703.33300    109.746719
    5793           0      1908.336182   2435.820068  -10703.33300    100.194321
    5794           0      1600.816650   2648.084717  -10703.33300     92.766846
    5795           0      1269.955933   2821.733398  -10703.33300     86.193077
    5796           0       920.577515   2954.234863  -10703.33300     79.906738
    5797           0       557.773926   3043.658203  -10703.33300     74.631920
    5798           0       186.833481   3088.698730  -10703.33300     71.340469
    5799           0      3088.698242    186.834900  -10327.77734    122.223389
    5800           0      3043.657227    557.777710  -10327.77734     48.714661
    5801           0      2954.233398    920.582764  -10327.77734     74.464645
    5802           0      2821.730957   1269.961548  -10327.77734    109.992104
    5803           0      2648.081543   1600.821655  -10327.77734    120.274399
    5804           0      2435.816895   1908.339844  -10327.77734    114.214851
    5805           0      2188.030273   2188.033203  -10327.77734    103.139015
    5806           0      1908.336182   2435.819824  -10327.77734     93.618889
    5807           0      1600.816650   2648.084717  -10327.77734     86.646355
    5808           0      1269.955933   2821.733398  -10327.77734     80.759651
    5809           0       920.577515   2954.234863  -10327.77734     75.205704
    5810           0       557.773926   3043.658203  -10327.77734     70.555374
    5811           0       186.833481   3088.698730  -10327.77734     67.701942
    5812           0      3088.698242    186.834900  -9952.220703    114.128838
    5813           0      3043.657227    557.777649  -9952.220703     45.711292
    5814           0      2954.233398    920.582703  -9952.220703     75.880928
    5815           0      2821.730957   1269.961426  -9952.220703    108.288185
    5816           0      2648.081787   1600.821655  -9952.220703    115.807487
    5817           0      2435.817139   1908.339844  -9952.220703    108.178726
    5818           0      2188.030273   2188.033203  -9952.220703     96.509377
    5819           0      1908.336182   2435.819824  -9952.220703     87.034233
    5820           0      1600.816650   2648.084717  -9952.220703     80.529457
    5821           0      1269.955933   2821.733398  -9952.220703     75.354950
    5822           0       920.577515   2954.234863  -9952.220703     70.566818
    5823           0       557.773926   3043.658203  -9952.220703     66.574760
    5824           0       186.833481   3088.698730  -9952.220703     64.183235
    5825           0      3088.698242    186.834869  -9576.666016    105.684570
    5826           0      3043.657227    557.777649  -9576.666016     43.559372
    5827           0      2954.233398    920.582581  -9576.666016     77.415710
    5828           0      2821.730957   1269.961426  -9576.666016    106.502930
    5829           0      2648.081787   1600.821655  -9576.666016    111.259155
    5830           0      2435.817139   1908.339844  -9576.666016    102.111664
    5831           0      2188.030273   2188.033203  -9576.666016     89.873848
    5832           0      1908.336182   2435.819824  -9576.666016     80.445015
    5833           0      1600.816650   2648.084717  -9576.666016     74.418671
    5834           0      1269.955811   2821.733398  -9576.666016     69.981705
    5835           0       920.577393   2954.234863  -9576.666016     65.993271
    5836           0       557.773926   3043.658203  -9576.666016     62.693348
    5837           0       186.833481   3088.698730  -9576.666016     60.787987
    5838           0      3088.698242    186.834869  -9201.111328     96.978554
    5839           0      3043.657227    557.777588  -9201.111328     42.578079
    5840           0      2954.233398    920.582581  -9201.111328     79.061852
    5841           0      2821.730957   1269.961426  -9201.111328    104.635681
    5842           0      2648.081787   1600.821533  -9201.111328    106.642784
    5843           0      2435.817383   1908.339844  -9201.111328     96.032356
    5844           0      2188.030273   2188.033203  -9201.111328     83.250992
    5845           0      1908.336182   2435.819824  -9201.111328     73.862022
    5846           0      1600.816650   2648.084717  -9201.111328     68.317352
    5847           0      1269.955811   2821.733398  -9201.111328     64.642937
    5848           0       920.577271   2954.234863  -9201.111328     61.489891
    5849           0       557.773865   3043.658203  -9201.111328     58.916042
    5850           0       186.833481   3088.698730  -9201.111328     57.521091
    5851           0      3088.698242    186.834839  -8825.555664     88.144218
    5852           0      3043.657227    557.777588  -8825.555664     43.030731
    5853           0      2954.233398    920.582520  -8825.555664     80.810181
    5854           0      2821.730957   1269.961426  -8825.555664    102.687309
    5855           0      2648.081787   1600.821533  -8825.555664    101.975517
    5856           0      2435.817383   1908.339722  -8825.555664     89.967766
    5857           0      2188.030273   2188.032959  -8825.555664     76.658188
    5858           0      1908.336182   2435.819824  -8825.555664     67.292259
    5859           0      1600.816650   2648.084717  -8825.555664     62.228321
    5860           0      1269.955811   2821.733398  -8825.555664     59.343098
    5861           0       920.577271   2954.234863  -8825.555664     57.062725
    5862           0       557.773804   3043.658203  -8825.555664     55.249779
    5863           0       186.833481   3088.698730  -8825.555664     54.388638
    5864           0      3088.698242    186.834824  -8450.000977     79.389755
    5865           0      3043.657227    557.777527  -8450.000977     45.033211
    5866           0      2954.233398    920.582397  -8450.000977     82.651390
    5867           0      2821.730957   1269.961182  -8450.000977    100.661880
    5868           0      2648.081787   1600.821533  -8450.000977     97.277992
    5869           0      2435.817383   1908.339722  -8450.000977     83.943054
    5870           0      2188.030273   2188.032959  -8450.000977     70.119072
    5871           0      1908.336182   2435.820068  -8450.000977     60.744770
    5872           0      1600.816650   2648.084717  -8450.000977     56.154007
    5873           0      1269.955811   2821.733398  -8450.000977     54.087399
    5874           0       920.577271   2954.234863  -8450.000977     52.720531
    5875           0       557.773682   3043.658203  -8450.000977     51.702831
    5876           0       186.833405   3088.698730  -8450.000977     51.398190
    5877           0      3088.698242    186.834808  -8074.445313     71.039299
    5878           0      3043.657227    557.777466  -8074.445313     48.530243
    5879           0      2954.233398    920.582397  -8074.445313     84.570480
    5880           0      2821.730957   1269.961182  -8074.445313     98.568932
    5881           0      2648.081787   1600.821289  -8074.445313     92.569946
    5882           0      2435.817383   1908.339600  -8074.445313     77.984901
    5883           0      2188.030273   2188.032959  -8074.445313     63.653343
    5884           0      1908.336060   2435.820068  -8074.445313     54.227566
    5885           0      1600.816406   2648.084961  -8074.445313     50.096947
    5886           0      1269.955811   2821.733398  -8074.445313     48.883278
    5887           0       920.577271   2954.234863  -8074.445313     48.474636
    5888           0       557.773621   3043.658203  -8074.445313     48.286186
    5889           0       186.833328   3088.698730  -8074.445313     48.558891
    5890           0      3088.698242    186.834778  -7698.889160     63.596237
    5891           0      3043.657227    557.777344  -7698.889160     53.329048
    5892           0      2954.233398    920.582275  -7698.889160     86.556961
    5893           0      2821.730957   1269.961182  -7698.889160     96.418083
    5894           0      2648.081787   1600.821289  -7698.889160     87.879425
    5895           0      2435.817383   1908.339600  -7698.889160     72.127121
    5896           0      2188.030273   2188.032959  -7698.889160     57.290428
    5897           0      1908.336060   2435.820068  -7698.889160     47.748348
    5898           0      1600.816406   2648.084961  -7698.889160     44.058983
    5899           0      1269.955811   2821.733398  -7698.889160     43.741158
    5900           0       920.577271   2954.234863  -7698.889160     44.340775
    5901           0       557.773621   3043.658203  -7698.889160     45.014046
    5902           0       186.833328   3088.698730  -7698.889160     45.881477
    5903           0      3088.698242    186.834778  -7323.333496     57.794983
    5904           0      3043.657227    557.777344  -7323.333496     59.188770
    5905           0      2954.233398    920.582275  -7323.333496     88.595131
    5906           0      2821.730957   1269.961060  -7323.333496     94.225441
    5907           0      2648.082031   1600.821289  -7323.333496     83.230247
    5908           0      2435.817383   1908.339600  -7323.333496     66.405182
    5909           0      2188.030273   2188.032959  -7323.333496     51.063221
    5910           0      1908.336060   2435.820068  -7323.333496     41.319828
    5911           0      1600.816406   2648.084961  -7323.333496     38.042797
    5912           0      1269.955811   2821.733398  -7323.333496     38.677307
    5913           0       920.577271   2954.234863  -7323.333496     40.340225
    5914           0       557.773621   3043.658203  -7323.333496     41.904240
    5915           0       186.833328   3088.698730  -7323.333496     43.378941
    5916           0      3088.698242    186.834747  -6947.777832     54.571636
    5917           0      3043.657227    557.777344  -6947.777832     65.865891
    5918           0      2954.233398    920.582275  -6947.777832     90.674957
    5919           0      2821.730957   1269.960938  -6947.777832     92.005661
    5920           0      2648.082031   1600.821289  -6947.777832     78.653214
    5921           0      2435.817383   1908.339600  -6947.777832     60.855480
    5922           0      2188.030273   2188.032959  -6947.777832     45.017326
    5923           0      1908.336060   2435.820068  -6947.777832     34.957405
    5924           0      1600.816406   2648.084961  -6947.777832     32.051849
    5925           0      1269.955811   2821.733398  -6947.777832     33.716320
    5926           0       920.577271   2954.234863  -6947.777832     36.503345
    5927           0       557.773621   3043.658203  -6947.777832     38.979004
    5928           0       186.833328   3088.698730  -6947.777832     41.066437
    5929           0      3088.698242    186.834732  -6572.222656     54.770008
    5930           0      3043.657227    557.777283  -6572.222656     73.160187
    5931           0      2954.233398    920.582092  -6572.222656     92.780243
    5932           0      2821.730957   1269.960938  -6572.222656     89.782730
    5933           0      2648.082031   1600.821167  -6572.222656     74.176575
    5934           0      2435.817383   1908.339478  -6572.222656     55.526985
    5935           0      2188.030273   2188.032959  -6572.222656     39.216637
    5936           0      1908.336060   2435.820068  -6572.222656     28.690294
    5937           0      1600.816406   2648.084961  -6572.222656     26.091646
    5938           0      1269.955688   2821.733398  -6572.222656     28.898949
    5939           0       920.577148   2954.234863  -6572.222656     32.872128
    5940           0       557.773621   3043.658203  -6572.222656     36.265984
    5941           0       186.833328   3088.698730  -6572.222656     38.960968
    5942           0      3088.698242    186.834717  -6196.666992     58.698910
    5943           0      3043.657227    557.777222  -6196.666992     80.892075
    5944           0      2954.233398    920.582092  -6196.666992     94.906982
    5945           0      2821.730957   1269.960938  -6196.666992     87.573975
    5946           0      2648.082031   1600.821167  -6196.666992     69.830544
    5947           0      2435.817383   1908.339478  -6196.666992     50.470360
    5948           0      2188.030273   2188.032715  -6196.666992     33.764416
    5949           0      1908.336182   2435.819824  -6196.666992     22.573793
    5950           0      1600.816406   2648.084961  -6196.666992     20.174202
    5951           0      1269.955688   2821.733398  -6196.666992     24.295517
    5952           0       920.577148   2954.234863  -6196.666992     29.505951
    5953           0       557.773621   3043.658203  -6196.666992     33.798916
    5954           0       186.833328   3088.698730  -6196.666992     37.080982
    5955           0      3088.698242    186.834686  -5821.111328     65.949738
    5956           0      3043.657227    557.777161  -5821.111328     88.932716
    5957           0      2954.233398    920.582031  -5821.111328     97.040207
    5958           0      2821.730957   1269.960938  -5821.111328     85.408188
    5959           0      2648.082031   1600.821045  -5821.111328     65.641121
    5960           0      2435.817383   1908.339355  -5821.111328     45.753723
    5961           0      2188.030518   2188.032715  -5821.111328     28.820240
    5962           0      1908.336182   2435.819824  -5821.111328     16.745329
    5963           0      1600.816406   2648.084961  -5821.111328     14.328205
    5964           0      1269.955688   2821.733398  -5821.111328     20.035301
    5965           0       920.577026   2954.234863  -5821.111328     26.487707
    5966           0       557.773560   3043.658203  -5821.111328     31.617546
    5967           0       186.833328   3088.698730  -5821.111328     35.445759
    5968           0      3088.698242    186.834686  -5445.555664     75.772736
    5969           0      3043.657227    557.777100  -5445.555664     97.155296
    5970           0      2954.233398    920.581909  -5445.555664     99.184532
    5971           0      2821.730957   1269.960693  -5445.555664     83.300026
    5972           0      2648.082031   1600.821045  -5445.555664     61.639030
    5973           0      2435.817383   1908.339355  -5445.555664     41.454502
    5974           0      2188.030518   2188.032715  -5445.555664     24.652237
    5975           0      1908.336182   2435.819824  -5445.555664     11.595197
    5976           0      1600.816406   2648.084961  -5445.555664      8.659797
    5977           0      1269.955566   2821.733398  -5445.555664     16.363792
    5978           0       920.577026   2954.234863  -5445.555664     23.929094
    5979           0       557.773499   3043.658203  -5445.555664     29.766657
    5980           0       186.833328   3088.698730  -5445.555664     34.074123
    5981           0      3088.698242    186.834656  -5070.000000     87.408485
    5982           0      3043.657227    557.777100  -5070.000000    105.481468
    5983           0      2954.233398    920.581909  -5070.000000    101.329300
    5984           0      2821.730957   1269.960693  -5070.000000     81.281372
    5985           0      2648.082031   1600.821045  -5070.000000     57.839607
    5986           0      2435.817383   1908.339355  -5070.000000     37.676636
    5987           0      2188.030762   2188.032715  -5070.000000     21.658066
    5988           0      1908.336182   2435.819824  -5070.000000      8.407354
    5989           0      1600.816406   2648.084961  -5070.000000      3.912599
    5990           0      1269.955566   2821.733398  -5070.000000     13.731786
    5991           0       920.577026   2954.234863  -5070.000000     21.969530
    5992           0       557.773438   3043.658203  -5070.000000     28.292488
    5993           0       186.833252   3088.698730  -5070.000000     32.983177
    5994           0      3088.698242    186.834656  -4694.444824    100.303627
    5995           0      3043.657227    557.777039  -4694.444824    113.816978
    5996           0      2954.233398    920.581909  -4694.444824    103.490654
    5997           0      2821.730957   1269.960693  -4694.444824     79.360352
    5998           0      2648.082031   1600.820801  -4694.444824     54.273872
    5999           0      2435.817627   1908.339355  -4694.444824     34.534988
    6000           0      2188.030762   2188.032715  -4694.444824     20.313044
    6001           0      1908.336182   2435.819824  -4694.444824      9.378091
    6002           0      1600.816406   2648.084961  -4694.444824      5.046463
    6003           0      1269.955566   2821.733398  -4694.444824     12.764373
    6004           0       920.577026   2954.234863  -4694.444824     20.756195
    6005           0       557.773315   3043.658203  -4694.444824     27.237965
    6006           0       186.833191   3088.698730  -4694.444824     32.185757
    6007           0      3088.698242    186.834625  -4318.889160    114.006096
    6008           0      3043.657471    557.776978  -4318.889160    122.124374
    6009           0      2954.233398    920.581787  -4318.889160    105.660637
    6010           0      2821.730957   1269.960693  -4318.889160     77.565361
    6011           0      2648.082031   1600.820801  -4318.889160     50.945274
    6012           0      2435.817627   1908.339355  -4318.889160     32.169781
    6013           0      2188.030762   2188.032715  -4318.889160     20.884575
    6014           0      1908.336182   2435.819824  -4318.889160     13.605783
    6015           0      1600.816406   2648.084961  -4318.889160     10.229456
    6016           0      1269.955444   2821.733398  -4318.889160     13.784215
    6017           0       920.576904   2954.234863  -4318.889160     20.399527
    6018           0       557.773315   3043.658203  -4318.889160     26.634954
    6019           0       186.833191   3088.698730  -4318.889160     31.689194
    6020           0      3088.698242    186.834595  -3943.333740    128.255966
    6021           0      3043.657471    557.776978  -3943.333740    130.334290
    6022           0      2954.233643    920.581787  -3943.333740    107.872101
    6023           0      2821.731201   1269.960571  -3943.333740     75.892632
    6024           0      2648.082031   1600.820679  -3943.333740     47.877666
    6025           0      2435.817627   1908.339355  -3943.333740     30.696011
    6026           0      2188.030762   2188.032715  -3943.333740     23.190031
    6027           0      1908.336182   2435.819824  -3943.333740     19.001354
    6028           0      1600.816406   2648.084961  -3943.333740     15.871357
    6029           0      1269.955322   2821.733398  -3943.333740     16.399197
    6030           0       920.576782   2954.235107  -3943.333740     20.921041
    6031           0       557.773315   3043.658203  -3943.333740     26.496149
    6032           0       186.833191   3088.698730  -3943.333740     31.494173
    6033           0      3088.698242    186.834595  -3567.778076    142.757599
    6034           0      3043.657471    557.776855  -3567.778076    138.448303
    6035           0      2954.233643    920.581604  -3567.778076    110.113686
    6036           0      2821.731445   1269.960449  -3567.778076     74.366081
    6037           0      2648.082275   1600.820679  -3567.778076     45.068409
    6038           0      2435.817627   1908.339111  -3567.778076     30.199528
    6039           0      2188.030762   2188.032715  -3567.778076     26.747362
    6040           0      1908.336182   2435.819824  -3567.778076     24.788559
    6041           0      1600.816406   2648.084961  -3567.778076     21.596201
    6042           0      1269.955322   2821.733398  -3567.778076     19.968517
    6043           0       920.576782   2954.235107  -3567.778076     22.238804
    6044           0       557.773315   3043.658203  -3567.778076     26.812534
    6045           0       186.833191   3088.698730  -3567.778076     31.591761
    6046           0      3088.698242    186.834564  -3192.221436    157.425964
    6047           0      3043.657715    557.776855  -3192.221436    146.434158
    6048           0      2954.233643    920.581604  -3192.221436    112.439896
    6049           0      2821.731445   1269.960449  -3192.221436     72.960152
    6050           0      2648.082275   1600.820679  -3192.221436     42.537895
    6051           0      2435.817627   1908.339111  -3192.221436     30.668451
    6052           0      2188.030762   2188.032715  -3192.221436     31.096918
    6053           0      1908.336182   2435.819824  -3192.221436     30.728994
    6054           0      1600.816406   2648.084961  -3192.221436     27.330793
    6055           0      1269.955322   2821.733398  -3192.221436     24.054306
    6056           0       920.576782   2954.235107  -3192.221436     24.204033
    6057           0       557.773315   3043.658203  -3192.221436     27.552629
    6058           0       186.833191   3088.698730  -3192.221436     31.967308
    6059           0      3088.698486    186.834564  -2816.665771    172.016602
    6060           0      3043.657715    557.776855  -2816.665771    154.323227
    6061           0      2954.233643    920.581543  -2816.665771    114.814018
    6062           0      2821.731445   1269.960449  -2816.665771     71.694870
    6063           0      2648.082275   1600.820679  -2816.665771     40.273018
    6064           0      2435.817627   1908.339111  -2816.665771     32.026909
    6065           0      2188.030762   2188.032715  -2816.665771     35.936447
    6066           0      1908.336182   2435.819824  -2816.665771     36.731686
    6067           0      1600.816406   2648.084961  -2816.665771     33.060566
    6068           0      1269.955322   2821.733398  -2816.665771     28.416010
    6069           0       920.576782   2954.235107  -2816.665771     26.657223
    6070           0       557.773315   3043.658203  -2816.665771     28.669033
    6071           0       186.833191   3088.698730  -2816.665771     32.598309
    6072           0      3088.698486    186.834534  -2441.111328    186.541656
    6073           0      3043.657715    557.776733  -2441.111328    162.122116
    6074           0      2954.233643    920.581421  -2441.111328    117.322708
    6075           0      2821.731445   1269.960327  -2441.111328     70.539398
    6076           0      2648.082275   1600.820557  -2441.111328     38.310844
    6077           0      2435.817627   1908.339111  -2441.111328     34.101208
    6078           0      2188.030762   2188.032715  -2441.111328     41.036385
    6079           0      1908.336182   2435.819824  -2441.111328     42.738167
    6080           0      1600.816406   2648.084961  -2441.111328     38.756535
    6081           0      1269.955322   2821.733398  -2441.111328     32.928135
    6082           0       920.576782   2954.235107  -2441.111328     29.462257
    6083           0       557.773315   3043.658203  -2441.111328     30.107887
    6084           0       186.833191   3088.698730  -2441.111328     33.463413
    6085           0      3088.698486    186.834503  -2065.554932    201.047501
    6086           0      3043.657715    557.776672  -2065.554932    169.978424
    6087           0      2954.233643    920.581421  -2065.554932    119.880089
    6088           0      2821.731445   1269.960205  -2065.554932     69.483162
    6089           0      2648.082520   1600.820557  -2065.554932     36.614902
    6090           0      2435.817627   1908.339111  -2065.554932     36.820175
    6091           0      2188.030762   2188.032471  -2065.554932     46.402622
    6092           0      1908.336304   2435.819824  -2065.554932     48.811993
    6093           0      1600.816406   2648.084961  -2065.554932     44.481968
    6094           0      1269.955322   2821.733398  -2065.554932     37.546631
    6095           0       920.576782   2954.235107  -2065.554932     32.520195
    6096           0       557.773315   3043.658203  -2065.554932     31.810171
    6097           0       186.833191   3088.698730  -2065.554932     34.522572
    6098           0      3088.698486    186.834503  -1689.998413    214.730606
    6099           0      3043.657715    557.776672  -1689.998413    177.423584
    6100           0      2954.233643    920.581421  -1689.998413    122.451683
    6101           0      2821.731445   1269.960205  -1689.998413     68.542969
    6102           0      2648.082520   1600.820313  -1689.998413     35.235397
    6103           0      2435.817871   1908.338989  -1689.998413     39.753353
    6104           0      2188.030762   2188.032471  -1689.998413     51.584183
    6105           0      1908.336304   2435.819824  -1689.998413     54.630268
    6106           0      1600.816406   2648.084961  -1689.998413     49.991383
    6107           0      1269.955322   2821.733398  -1689.998413     42.110256
    6108           0       920.576721   2954.235107  -1689.998413     35.714081
    6109           0       557.773193   3043.658203  -1689.998413     33.723568
    6110           0       186.833130   3088.698730  -1689.998413     35.779186
    6111           0      3088.698486    186.834473  -1314.443848    230.914413
    6112           0      3043.657715    557.776611  -1314.443848    186.477646
    6113           0      2954.233643    920.581299  -1314.443848    125.694817
    6114           0      2821.731445   1269.960083  -1314.443848     67.817307
    6115           0      2648.082520   1600.820313  -1314.443848     34.153397
    6116           0      2435.817871   1908.338989  -1314.443848     43.630344
    6117           0      2188.030762   2188.032471  -1314.443848     57.669518
    6118           0      1908.336304   2435.819824  -1314.443848     61.193897
    6119           0      1600.816406   2648.084961  -1314.443848     56.089417
    6120           0      1269.955322   2821.733398  -1314.443848     47.083645
    6121           0       920.576599   2954.235107  -1314.443848     39.205219
    6122           0       557.773071   3043.658203  -1314.443848     35.865337
    6123           0       186.833054   3088.698730  -1314.443848     37.161228
    6124           0      3088.698486    186.834473   -938.888367    239.457962
    6125           0      3043.657715    557.776611   -938.888367    190.358368
    6126           0      2954.233643    920.581299   -938.888367    126.596481
    6127           0      2821.731445   1269.959961   -938.888367     66.545242
    6128           0      2648.082520   1600.820313   -938.888367     33.119751
    6129           0      2435.817871   1908.338867   -938.888367     46.086868
    6130           0      2188.030762   2188.032471   -938.888367     61.469967
    6131           0      1908.336304   2435.819824   -938.888367     65.492760
    6132           0      1600.816406   2648.084961   -938.888367     60.286625
    6133           0      1269.955322   2821.733398   -938.888367     50.767620
    6134           0       920.576538   2954.235107   -938.888367     42.077045
    6135           0       557.773071   3043.658203   -938.888367     37.825687
    6136           0       186.833054   3088.698730   -938.888367     38.593719
    6137           0      3088.698486    186.834442   -563.331787    268.817932
    6138           0      3043.657715    557.776550   -563.331787    208.949356
    6139           0      2954.233643    920.581238   -563.331787    135.611862
    6140           0      2821.731445   1269.959961   -563.331787     67.711815
    6141           0      2648.082520   1600.820313   -563.331787     33.012077
    6142           0      2435.817871   1908.338867   -563.331787     52.655800
    6143           0      2188.030762   2188.032471   -563.331787     71.100235
    6144           0      1908.336304   2435.819824   -563.331787     75.724747
    6145           0      1600.816406   2648.084961   -563.331787     69.630463
    6146           0      1269.955322   2821.733398   -563.331787     58.286125
    6147           0       920.576538   2954.235107   -563.331787     47.349472
    6148           0       557.773071   3043.658203   -563.331787     41.136890
    6149           0       186.833054   3088.698730   -563.331787     40.755592
    6150           0      3088.698486    186.834427   -187.777267    250.731766
    6151           0      3043.657715    557.776489   -187.777267    193.553436
    6152           0      2954.233887    920.581116   -187.777267    125.058861
    6153           0      2821.731445   1269.959961   -187.777267     62.903893
    6154           0      2648.082520   1600.820190   -187.777267     32.766811
    6155           0      2435.817871   1908.338867   -187.777267     51.271004
    6156           0      2188.030762   2188.032471   -187.777267     68.123222
    6157           0      1908.336304   2435.819824   -187.777267     72.423340
    6158           0      1600.816406   2648.084961   -187.777267     66.866341
    6159           0      1269.955322   2821.733398   -187.777267     56.498283
    6160           0       920.576538   2954.235107   -187.777267     46.583366
    6161           0       557.773071   3043.658203   -187.777267     41.003521
    6162           0       186.833054   3088.698730   -187.777267     40.814018
    6163           0      -186.835388   3088.698242  -33612.22265    437.926727
    6164           0      -557.778870   3043.657227  -33612.22265    417.509827
    6165           0      -920.584045   2954.232910  -33612.22265    387.288605
    6166           0     -1269.962769   2821.730225  -33612.22265    350.103088
    6167           0     -1600.822876   2648.081055  -33612.22265    310.060425
    6168           0     -1908.340820   2435.816406  -33612.22265    272.357239
    6169           0     -2188.033447   2188.029785  -33612.22265    242.357132
    6170           0     -2435.820068   1908.335938  -33612.22265    224.395706
    6171           0     -2648.084961   1600.816406  -33612.22265    220.880127
    6172           0     -2821.733643   1269.955078  -33612.22265    231.801331
    6173           0     -2954.235107    920.576782  -33612.22265    253.882141
    6174           0     -3043.657959    557.774109  -33612.22265    280.541962
    6175           0     -3088.698730    186.833649  -33612.22265    299.909851
    6176           0      -186.836182   3088.698242  -33236.66796    479.170197
    6177           0      -557.781006   3043.656738  -33236.66796    456.571991
    6178           0      -920.586792   2954.231934  -33236.66796    423.213348
    6179           0     -1269.965332   2821.729004  -33236.66796    382.144318
    6180           0     -1600.825317   2648.079590  -33236.66796    337.789459
    6181           0     -1908.342651   2435.814941  -33236.66796    295.659271
    6182           0     -2188.034668   2188.028809  -33236.66796    261.703033
    6183           0     -2435.820313   1908.335693  -33236.66796    240.735764
    6184           0     -2648.084473   1600.816650  -33236.66796    235.541214
    6185           0     -2821.733398   1269.955322  -33236.66796    245.890747
    6186           0     -2954.234863    920.577759  -33236.66796    268.365112
    6187           0     -3043.657959    557.775696  -33236.66796    294.544250
    6188           0     -3088.698242    186.834366  -33236.66796    311.920074
    6189           0      -186.836182   3088.698242  -32861.10937    448.379242
    6190           0      -557.780945   3043.656738  -32861.10937    427.684631
    6191           0      -920.586670   2954.231934  -32861.10937    397.285828
    6192           0     -1269.965332   2821.729004  -32861.10937    359.881897
    6193           0     -1600.825195   2648.079590  -32861.10937    319.404633
    6194           0     -1908.342529   2435.814941  -32861.10937    280.815033
    6195           0     -2188.034668   2188.028809  -32861.10937    249.436859
    6196           0     -2435.820313   1908.335693  -32861.11328    229.715668
    6197           0     -2648.084473   1600.816650  -32861.11328    224.066833
    6198           0     -2821.733398   1269.955322  -32861.11328    232.388016
    6199           0     -2954.234863    920.577759  -32861.11328    251.181839
    6200           0     -3043.657959    557.775696  -32861.11328    272.744049
    6201           0     -3088.698242    186.834366  -32861.11328    285.549347
    6202           0      -186.836151   3088.698242  -32485.55664    447.590485
    6203           0      -557.780945   3043.656738  -32485.55664    427.075989
    6204           0      -920.586670   2954.231934  -32485.55664    397.052429
    6205           0     -1269.965332   2821.729004  -32485.55664    360.058289
    6206           0     -1600.825195   2648.079590  -32485.55664    319.897186
    6207           0     -1908.342529   2435.814941  -32485.55664    281.409332
    6208           0     -2188.034668   2188.028809  -32485.55664    249.753586
    6209           0     -2435.820313   1908.335693  -32485.55664    229.353638
    6210           0     -2648.084473   1600.816650  -32485.55664    222.675278
    6211           0     -2821.733398   1269.955322  -32485.55664    229.637177
    6212           0     -2954.234863    920.577637  -32485.55664    246.605453
    6213           0     -3043.657959    557.775635  -32485.55664    265.990265
    6214           0     -3088.698242    186.834366  -32485.55664    276.212494
    6215           0      -186.836151   3088.698242  -32110.00000    436.619568
    6216           0      -557.780884   3043.656738  -32110.00000    416.896576
    6217           0      -920.586609   2954.231934  -32110.00000    388.157593
    6218           0     -1269.965210   2821.729004  -32110.00000    352.754730
    6219           0     -1600.825195   2648.079590  -32110.00000    314.228394
    6220           0     -1908.342529   2435.814941  -32110.00000    277.091461
    6221           0     -2188.034668   2188.028809  -32110.00000    246.254852
    6222           0     -2435.820313   1908.335693  -32110.00000    225.889038
    6223           0     -2648.084473   1600.816650  -32110.00000    218.458633
    6224           0     -2821.733398   1269.955322  -32110.00000    223.728668
    6225           0     -2954.234863    920.577515  -32110.00000    238.274948
    6226           0     -3043.657959    557.775452  -32110.00000    254.316574
    6227           0     -3088.698242    186.834290  -32110.00000    261.480377
    6228           0      -186.836121   3088.698242  -31734.44531    428.858612
    6229           0      -557.780884   3043.656738  -31734.44531    409.726746
    6230           0      -920.586609   2954.231934  -31734.44531    381.973145
    6231           0     -1269.965210   2821.729004  -31734.44531    347.770599
    6232           0     -1600.825195   2648.079590  -31734.44531    310.427124
    6233           0     -1908.342407   2435.815186  -31734.44531    274.235992
    6234           0     -2188.034424   2188.028809  -31734.44531    243.830002
    6235           0     -2435.820313   1908.335693  -31734.44531    223.295212
    6236           0     -2648.084473   1600.816650  -31734.44531    214.970245
    6237           0     -2821.733398   1269.955322  -31734.44531    218.725922
    6238           0     -2954.234863    920.577515  -31734.44531    230.980560
    6239           0     -3043.657959    557.775391  -31734.44531    244.334030
    6240           0     -3088.698242    186.834213  -31734.44531    248.938858
    6241           0      -186.836090   3088.698242  -31358.89062    420.220825
    6242           0      -557.780823   3043.656738  -31358.89062    401.738007
    6243           0      -920.586548   2954.231934  -31358.89062    375.052612
    6244           0     -1269.965088   2821.729004  -31358.89062    342.166840
    6245           0     -1600.824951   2648.079590  -31358.89062    306.160339
    6246           0     -1908.342407   2435.815430  -31358.89062    271.033691
    6247           0     -2188.034180   2188.029053  -31358.88867    241.216232
    6248           0     -2435.820313   1908.335693  -31358.88867    220.581406
    6249           0     -2648.084473   1600.816650  -31358.88867    211.452393
    6250           0     -2821.733398   1269.955322  -31358.88867    213.613022
    6251           0     -2954.234863    920.577515  -31358.88867    223.603439
    6252           0     -3043.657959    557.775391  -31358.88867    234.105698
    6253           0     -3088.698242    186.834213  -31358.88867    236.398239
    6254           0      -186.836090   3088.698242  -30983.33398    411.868317
    6255           0      -557.780762   3043.656738  -30983.33398    394.014221
    6256           0      -920.586487   2954.231934  -30983.33398    368.370056
    6257           0     -1269.965088   2821.729004  -30983.33398    336.767090
    6258           0     -1600.824951   2648.079590  -30983.33398    302.044403
    6259           0     -1908.342407   2435.815430  -30983.33398    267.963074
    6260           0     -2188.034180   2188.029053  -30983.33398    238.688202
    6261           0     -2435.820313   1908.335693  -30983.33398    217.961624
    6262           0     -2648.084473   1600.816650  -30983.33398    207.997177
    6263           0     -2821.733398   1269.955322  -30983.33398    208.607742
    6264           0     -2954.234863    920.577515  -30983.33398    216.298172
    6265           0     -3043.657959    557.775391  -30983.33398    224.135544
    6266           0     -3088.698242    186.834213  -30983.33398    224.364365
    6267           0      -186.836060   3088.698242  -30607.77734    403.493774
    6268           0      -557.780762   3043.656738  -30607.77734    386.270782
    6269           0      -920.586365   2954.232178  -30607.77734    361.668579
    6270           0     -1269.964966   2821.729004  -30607.77734    331.350800
    6271           0     -1600.824951   2648.079590  -30607.77734    297.932556
    6272           0     -1908.342285   2435.815430  -30607.77734    264.899780
    6273           0     -2188.034180   2188.029053  -30607.77734    236.203873
    6274           0     -2435.820313   1908.335693  -30607.77734    215.397598
    6275           0     -2648.084473   1600.816650  -30607.77734    204.636353
    6276           0     -2821.733398   1269.955322  -30607.77734    203.672012
    6277           0     -2954.234863    920.577515  -30607.77734    209.125305
    6278           0     -3043.657959    557.775391  -30607.77734    214.319641
    6279           0     -3088.698242    186.834213  -30607.77734    213.031357
    6280           0      -186.836060   3088.698242  -30232.22265    395.175842
    6281           0      -557.780640   3043.656738  -30232.22265    378.578400
    6282           0      -920.586304   2954.232178  -30232.22265    355.012085
    6283           0     -1269.964966   2821.729004  -30232.22265    325.975342
    6284           0     -1600.824951   2648.079590  -30232.22265    293.849518
    6285           0     -1908.342285   2435.815430  -30232.22265    261.878082
    6286           0     -2188.034180   2188.029053  -30232.22265    233.762039
    6287           0     -2435.820313   1908.335693  -30232.22265    212.902603
    6288           0     -2648.084473   1600.816650  -30232.22265    201.342651
    6289           0     -2821.733398   1269.955322  -30232.22265    198.833496
    6290           0     -2954.234863    920.577515  -30232.22265    202.028580
    6291           0     -3043.657959    557.775391  -30232.22265    204.720398
    6292           0     -3088.698242    186.834213  -30232.22265    202.349380
    6293           0      -186.836029   3088.698242  -29856.66796    386.896729
    6294           0      -557.780579   3043.656738  -29856.66796    370.922211
    6295           0      -920.586243   2954.232178  -29856.66796    348.385620
    6296           0     -1269.964844   2821.729004  -29856.66796    320.622986
    6297           0     -1600.824829   2648.079590  -29856.66796    289.796875
    6298           0     -1908.342285   2435.815430  -29856.66796    258.883759
    6299           0     -2188.034180   2188.029053  -29856.66796    231.369461
    6300           0     -2435.820313   1908.335693  -29856.66796    210.470978
    6301           0     -2648.084473   1600.816650  -29856.66796    198.140991
    6302           0     -2821.733398   1269.955322  -29856.66796    194.081787
    6303           0     -2954.234863    920.577515  -29856.66796    195.064880
    6304           0     -3043.657959    557.775391  -29856.66796    195.346909
    6305           0     -3088.698242    186.834213  -29856.66796    192.657272
    6306           0      -186.836014   3088.698242  -29481.10937    378.664185
    6307           0      -557.780518   3043.656738  -29481.10937    363.307465
    6308           0      -920.586182   2954.232178  -29481.10937    341.794647
    6309           0     -1269.964844   2821.729004  -29481.10937    315.300690
    6310           0     -1600.824707   2648.079590  -29481.10937    285.763702
    6311           0     -1908.342285   2435.815430  -29481.10937    255.922928
    6312           0     -2188.034180   2188.029053  -29481.10937    229.022415
    6313           0     -2435.820313   1908.335693  -29481.10937    208.111282
    6314           0     -2648.084473   1600.816650  -29481.10937    195.025040
    6315           0     -2821.733398   1269.955322  -29481.10937    189.445251
    6316           0     -2954.234863    920.577515  -29481.10937    188.218353
    6317           0     -3043.657959    557.775330  -29481.10937    186.287735
    6318           0     -3088.698242    186.834213  -29481.10937    184.009705
    6319           0      -186.835999   3088.698242  -29105.55468    370.478668
    6320           0      -557.780518   3043.656738  -29105.55468    355.735901
    6321           0      -920.586121   2954.232178  -29105.55468    335.238159
    6322           0     -1269.964844   2821.729492  -29105.55468    310.005127
    6323           0     -1600.824707   2648.079834  -29105.55468    281.756805
    6324           0     -1908.342285   2435.815430  -29105.55468    252.992477
    6325           0     -2188.034180   2188.029053  -29105.55468    226.724121
    6326           0     -2435.820313   1908.335693  -29105.55468    205.819809
    6327           0     -2648.084473   1600.816650  -29105.55468    192.010010
    6328           0     -2821.733398   1269.955322  -29105.55468    184.918488
    6329           0     -2954.234863    920.577393  -29105.55468    181.527542
    6330           0     -3043.657959    557.775269  -29105.55468    177.580994
    6331           0     -3088.698242    186.834213  -29105.55468    176.664551
    6332           0      -186.835968   3088.698242  -28729.99804    362.341309
    6333           0      -557.780457   3043.656738  -28729.99804    348.206116
    6334           0      -920.586060   2954.232178  -28729.99804    328.715820
    6335           0     -1269.964600   2821.729492  -28729.99804    304.737885
    6336           0     -1600.824707   2648.080078  -28729.99804    277.775665
    6337           0     -1908.342041   2435.815430  -28729.99804    250.087723
    6338           0     -2188.034180   2188.029053  -28729.99804    224.473633
    6339           0     -2435.820313   1908.335693  -28729.99804    203.605927
    6340           0     -2648.084473   1600.816650  -28729.99804    189.095795
    6341           0     -2821.733398   1269.955322  -28729.99804    180.526550
    6342           0     -2954.234863    920.577393  -28729.99804    174.998978
    6343           0     -3043.657959    557.775208  -28729.99804    169.337341
    6344           0     -3088.698242    186.834137  -28729.99804    170.727646
    6345           0      -186.835968   3088.698242  -28354.44140    354.255096
    6346           0      -557.780457   3043.656738  -28354.43945    340.722900
    6347           0      -920.586060   2954.232178  -28354.43945    322.230377
    6348           0     -1269.964600   2821.729492  -28354.44140    299.493652
    6349           0     -1600.824707   2648.080078  -28354.44140    273.813812
    6350           0     -1908.342041   2435.815430  -28354.44140    247.213989
    6351           0     -2188.034180   2188.029297  -28354.44140    222.265701
    6352           0     -2435.820313   1908.335693  -28354.44140    201.466217
    6353           0     -2648.084473   1600.816528  -28354.44140    186.296097
    6354           0     -2821.733398   1269.955322  -28354.44140    176.268021
    6355           0     -2954.234863    920.577393  -28354.44140    168.671677
    6356           0     -3043.657959    557.775146  -28354.44335    161.626373
    6357           0     -3088.698242    186.834076  -28354.44335    166.337082
    6358           0      -186.835938   3088.698242  -27978.88671    346.220978
    6359           0      -557.780396   3043.656738  -27978.88671    333.285126
    6360           0      -920.585938   2954.232178  -27978.88671    315.779236
    6361           0     -1269.964600   2821.729492  -27978.88671    294.275391
    6362           0     -1600.824463   2648.080078  -27978.89062    269.873474
    6363           0     -1908.342041   2435.815430  -27978.89062    244.366394
    6364           0     -2188.034180   2188.029297  -27978.89062    220.103119
    6365           0     -2435.820313   1908.335938  -27978.89062    199.405304
    6366           0     -2648.084717   1600.816528  -27978.89062    183.611511
    6367           0     -2821.733398   1269.955322  -27978.89062    172.167435
    6368           0     -2954.234863    920.577393  -27978.88867    162.568619
    6369           0     -3043.657959    557.775146  -27978.88867    154.563995
    6370           0     -3088.698242    186.834076  -27978.88867    163.545013
    6371           0      -186.835938   3088.698242  -27603.33593    338.241730
    6372           0      -557.780273   3043.656738  -27603.33789    325.895081
    6373           0      -920.585876   2954.232178  -27603.33593    309.364288
    6374           0     -1269.964600   2821.729492  -27603.33593    289.081390
    6375           0     -1600.824463   2648.080078  -27603.33593    265.951721
    6376           0     -1908.342041   2435.815430  -27603.33593    241.543213
    6377           0     -2188.034180   2188.029297  -27603.33593    217.989456
    6378           0     -2435.820313   1908.335938  -27603.33593    197.425537
    6379           0     -2648.084717   1600.816528  -27603.33593    181.055557
    6380           0     -2821.733398   1269.955322  -27603.33398    168.231216
    6381           0     -2954.234863    920.577393  -27603.33398    156.729248
    6382           0     -3043.657959    557.775146  -27603.33398    148.238647
    6383           0     -3088.698242    186.834076  -27603.33398    162.337631
    6384           0      -186.835907   3088.698242  -27227.77929    330.320374
    6385           0      -557.780273   3043.656738  -27227.78125    318.554260
    6386           0      -920.585815   2954.232178  -27227.77929    302.988434
    6387           0     -1269.964478   2821.729492  -27227.77929    283.914185
    6388           0     -1600.824341   2648.080078  -27227.77929    262.048218
    6389           0     -1908.342041   2435.815430  -27227.77929    238.743546
    6390           0     -2188.034180   2188.029297  -27227.77929    215.917343
    6391           0     -2435.820313   1908.335938  -27227.77929    195.530685
    6392           0     -2648.084717   1600.816528  -27227.77929    178.629517
    6393           0     -2821.733398   1269.955322  -27227.77734    164.475189
    6394           0     -2954.234863    920.577393  -27227.77734    151.185562
    6395           0     -3043.657959    557.775146  -27227.77734    142.752319
    6396           0     -3088.698242    186.834076  -27227.77734    162.648880
    6397           0      -186.835876   3088.698242  -26852.22265    322.458954
    6398           0      -557.780212   3043.656738  -26852.22265    311.263611
    6399           0      -920.585754   2954.232178  -26852.22265    296.644958
    6400           0     -1269.964478   2821.729492  -26852.22265    278.766968
    6401           0     -1600.824341   2648.080078  -26852.22265    258.161346
    6402           0     -1908.342041   2435.815430  -26852.22265    235.965027
    6403           0     -2188.034180   2188.029297  -26852.22265    213.890442
    6404           0     -2435.820313   1908.335938  -26852.22265    193.719299
    6405           0     -2648.084717   1600.816528  -26852.22265    176.341339
    6406           0     -2821.733398   1269.955322  -26852.22265    160.912491
    6407           0     -2954.234863    920.577393  -26852.22265    145.977615
    6408           0     -3043.657959    557.775085  -26852.22265    138.183197
    6409           0     -3088.698242    186.834076  -26852.22265    164.331223
    6410           0      -186.835876   3088.698242  -26476.66796    314.657715
    6411           0      -557.780151   3043.656738  -26476.66796    304.026276
    6412           0      -920.585693   2954.232422  -26476.66796    290.339111
    6413           0     -1269.964355   2821.729492  -26476.66796    273.649719
    6414           0     -1600.824341   2648.080078  -26476.66796    254.292908
    6415           0     -1908.341919   2435.815674  -26476.66796    233.204453
    6416           0     -2188.034180   2188.029297  -26476.66796    211.904709
    6417           0     -2435.820313   1908.335938  -26476.66796    191.993301
    6418           0     -2648.084717   1600.816528  -26476.66796    174.194992
    6419           0     -2821.733398   1269.955322  -26476.66796    157.555359
    6420           0     -2954.234863    920.577271  -26476.66796    141.140121
    6421           0     -3043.657959    557.774963  -26476.66796    134.594238
    6422           0     -3088.698242    186.834076  -26476.66796    167.220779
    6423           0      -186.835846   3088.698242  -26101.11132    306.921143
    6424           0      -557.780151   3043.656738  -26101.11132    296.844696
    6425           0      -920.585693   2954.232422  -26101.11132    284.076050
    6426           0     -1269.964355   2821.729492  -26101.11132    268.548645
    6427           0     -1600.824219   2648.080078  -26101.11132    250.434875
    6428           0     -1908.341797   2435.815674  -26101.11132    230.462357
    6429           0     -2188.034180   2188.029297  -26101.11132    209.959412
    6430           0     -2435.820313   1908.335938  -26101.11132    190.351501
    6431           0     -2648.084717   1600.816528  -26101.11132    172.194504
    6432           0     -2821.733398   1269.955322  -26101.11132    154.415253
    6433           0     -2954.234863    920.577271  -26101.11132    136.710419
    6434           0     -3043.657959    557.774963  -26101.11132    132.021088
    6435           0     -3088.698242    186.834076  -26101.11132    171.104980
    6436           0      -186.835846   3088.698242  -25725.55859    299.251709
    6437           0      -557.780090   3043.656738  -25725.55859    289.717010
    6438           0      -920.585571   2954.232422  -25725.55859    277.849274
    6439           0     -1269.964355   2821.729736  -25725.55859    263.470398
    6440           0     -1600.824219   2648.080078  -25725.55664    246.593674
    6441           0     -1908.341675   2435.815674  -25725.55664    227.737793
    6442           0     -2188.034180   2188.029297  -25725.55664    208.049591
    6443           0     -2435.820313   1908.335938  -25725.55664    188.794159
    6444           0     -2648.084717   1600.816528  -25725.55664    170.341431
    6445           0     -2821.733398   1269.955322  -25725.55468    151.502151
    6446           0     -2954.234863    920.577271  -25725.55468    132.718781
    6447           0     -3043.657959    557.774963  -25725.55468    130.462585
    6448           0     -3088.698242    186.834076  -25725.55468    175.790146
    6449           0      -186.835815   3088.698242  -25349.99804    291.650513
    6450           0      -557.780029   3043.656738  -25350.00000    282.646240
    6451           0      -920.585571   2954.232422  -25350.00000    271.666534
    6452           0     -1269.964111   2821.729736  -25350.00000    258.423157
    6453           0     -1600.824219   2648.080078  -25350.00000    242.758575
    6454           0     -1908.341675   2435.815674  -25349.99804    225.023453
    6455           0     -2188.034180   2188.029297  -25350.00000    206.174484
    6456           0     -2435.820313   1908.335938  -25350.00000    187.316513
    6457           0     -2648.084717   1600.816528  -25349.99804    168.637726
    6458           0     -2821.733398   1269.955322  -25349.99804    148.822311
    6459           0     -2954.234863    920.577271  -25349.99804    129.192429
    6460           0     -3043.657959    557.774902  -25349.99804    129.887466
    6461           0     -3088.698242    186.834000  -25349.99804    181.072357
    6462           0      -186.835785   3088.698242  -24974.44140    284.120026
    6463           0      -557.779968   3043.656738  -24974.43945    275.636963
    6464           0      -920.585449   2954.232422  -24974.43945    265.522095
    6465           0     -1269.964111   2821.729736  -24974.43945    253.391235
    6466           0     -1600.824219   2648.080078  -24974.43945    238.934982
    6467           0     -1908.341675   2435.815674  -24974.43945    222.317902
    6468           0     -2188.034180   2188.029297  -24974.44140    204.328552
    6469           0     -2435.820313   1908.335938  -24974.44140    185.917007
    6470           0     -2648.084717   1600.816528  -24974.44140    167.081451
    6471           0     -2821.733398   1269.955322  -24974.44140    146.381622
    6472           0     -2954.234863    920.577271  -24974.44140    126.150757
    6473           0     -3043.657959    557.774841  -24974.44140    130.227509
    6474           0     -3088.698242    186.833923  -24974.44335    186.780487
    6475           0      -186.835785   3088.698242  -24598.88867    276.663330
    6476           0      -557.779907   3043.656738  -24598.88867    268.688049
    6477           0      -920.585388   2954.232422  -24598.88867    259.419952
    6478           0     -1269.964111   2821.729736  -24598.88671    248.386215
    6479           0     -1600.824219   2648.080078  -24598.88671    235.122330
    6480           0     -1908.341675   2435.815674  -24598.88671    219.617371
    6481           0     -2188.034180   2188.029297  -24598.88671    202.506348
    6482           0     -2435.820313   1908.335938  -24598.88671    184.591095
    6483           0     -2648.084717   1600.816528  -24598.88671    165.670135
    6484           0     -2821.733398   1269.955322  -24598.88671    144.182770
    6485           0     -2954.234863    920.577271  -24598.89062    123.604973
    6486           0     -3043.657959    557.774841  -24598.88867    131.392715
    6487           0     -3088.698242    186.833923  -24598.88867    192.752945
    6488           0      -186.835754   3088.698242  -24223.33398    269.282288
    6489           0      -557.779907   3043.656738  -24223.33593    261.802979
    6490           0      -920.585327   2954.232422  -24223.33398    253.361984
    6491           0     -1269.964111   2821.729736  -24223.33398    243.401459
    6492           0     -1600.823975   2648.080078  -24223.33398    231.314301
    6493           0     -1908.341675   2435.815674  -24223.33398    216.918793
    6494           0     -2188.033936   2188.029297  -24223.33398    200.702484
    6495           0     -2435.820313   1908.335938  -24223.33398    183.333557
    6496           0     -2648.084717   1600.816528  -24223.33398    164.399551
    6497           0     -2821.733398   1269.955322  -24223.33398    142.225677
    6498           0     -2954.234863    920.577271  -24223.33398    121.557739
    6499           0     -3043.657959    557.774841  -24223.33398    133.269440
    6500           0     -3088.698242    186.833923  -24223.33398    198.860748
    6501           0      -186.835754   3088.698242  -23847.77734    261.979797
    6502           0      -557.779846   3043.656738  -23847.77734    254.982941
    6503           0      -920.585205   2954.232422  -23847.77734    247.347992
    6504           0     -1269.963989   2821.729736  -23847.77734    238.440857
    6505           0     -1600.823975   2648.080078  -23847.77734    227.511261
    6506           0     -1908.341553   2435.815918  -23847.77734    214.216003
    6507           0     -2188.033936   2188.029541  -23847.77734    198.910919
    6508           0     -2435.820313   1908.335938  -23847.77734    182.137985
    6509           0     -2648.084717   1600.816528  -23847.77734    163.263763
    6510           0     -2821.733398   1269.955322  -23847.77734    140.508469
    6511           0     -2954.234863    920.577148  -23847.77734    120.000092
    6512           0     -3043.657959    557.774780  -23847.77734    135.739349
    6513           0     -3088.698242    186.833923  -23847.77734    204.988647
    6514           0      -186.835724   3088.698242  -23472.22070    254.757324
    6515           0      -557.779785   3043.656738  -23472.21875    248.230438
    6516           0      -920.585205   2954.232422  -23472.21875    241.380875
    6517           0     -1269.963867   2821.729736  -23472.21875    233.501938
    6518           0     -1600.823975   2648.080322  -23472.21875    223.709595
    6519           0     -1908.341553   2435.815918  -23472.21875    211.504486
    6520           0     -2188.033936   2188.029541  -23472.21875    197.124695
    6521           0     -2435.820313   1908.335938  -23472.21875    180.997238
    6522           0     -2648.084717   1600.816528  -23472.21875    162.255035
    6523           0     -2821.733398   1269.955322  -23472.21875    139.025803
    6524           0     -2954.234863    920.577148  -23472.21875    118.914581
    6525           0     -3043.657959    557.774658  -23472.21875    138.677841
    6526           0     -3088.698242    186.833923  -23472.22265    211.047150
    6527           0      -186.835709   3088.698242  -23096.66210    247.617981
    6528           0      -557.779785   3043.656738  -23096.65820    241.546432
    6529           0      -920.585144   2954.232422  -23096.65820    235.459549
    6530           0     -1269.963867   2821.729736  -23096.65820    228.585922
    6531           0     -1600.823853   2648.080322  -23096.66015    219.906860
    6532           0     -1908.341553   2435.815918  -23096.66015    208.777710
    6533           0     -2188.033936   2188.029541  -23096.66015    195.336746
    6534           0     -2435.820313   1908.335938  -23096.66015    179.903503
    6535           0     -2648.084717   1600.816528  -23096.66210    161.364822
    6536           0     -2821.733398   1269.955322  -23096.66406    137.770828
    6537           0     -2954.234863    920.577148  -23096.66406    118.272903
    6538           0     -3043.657959    557.774658  -23096.66406    141.968765
    6539           0     -3088.698242    186.833923  -23096.66406    216.959244
    6540           0      -186.835693   3088.698242  -22721.10937    240.563553
    6541           0      -557.779602   3043.656738  -22721.10546    234.934891
    6542           0      -920.585022   2954.232422  -22721.10546    229.589066
    6543           0     -1269.963867   2821.729736  -22721.10546    223.692703
    6544           0     -1600.823730   2648.080566  -22721.10546    216.100327
    6545           0     -1908.341553   2435.815918  -22721.10546    206.030563
    6546           0     -2188.033936   2188.029541  -22721.10937    193.539612
    6547           0     -2435.820313   1908.335938  -22721.10937    178.847992
    6548           0     -2648.084717   1600.816528  -22721.10937    160.583038
    6549           0     -2821.733398   1269.955322  -22721.10937    136.733810
    6550           0     -2954.234863    920.577148  -22721.10937    118.039505
    6551           0     -3043.657959    557.774658  -22721.10937    145.500168
    6552           0     -3088.698242    186.833923  -22721.11132    222.664429
    6553           0      -186.835663   3088.698242  -22345.55468    233.598663
    6554           0      -557.779602   3043.656738  -22345.55273    228.398575
    6555           0      -920.585022   2954.232422  -22345.55273    223.767334
    6556           0     -1269.963867   2821.729980  -22345.55273    218.821640
    6557           0     -1600.823730   2648.080566  -22345.55273    212.286819
    6558           0     -1908.341553   2435.815918  -22345.55273    203.256256
    6559           0     -2188.033936   2188.029541  -22345.55273    191.725677
    6560           0     -2435.820313   1908.335938  -22345.55273    177.821228
    6561           0     -2648.084717   1600.816528  -22345.55273    159.899094
    6562           0     -2821.733398   1269.955322  -22345.55273    135.903366
    6563           0     -2954.234863    920.577148  -22345.55468    118.171143
    6564           0     -3043.657959    557.774658  -22345.55468    149.174179
    6565           0     -3088.698242    186.833923  -22345.55468    228.112869
    6566           0      -186.835663   3088.698242  -21969.99609    226.720535
    6567           0      -557.779541   3043.656738  -21969.99609    221.934875
    6568           0      -920.584900   2954.232422  -21969.99609    217.999130
    6569           0     -1269.963623   2821.729980  -21969.99609    213.972839
    6570           0     -1600.823730   2648.080566  -21969.99609    208.462036
    6571           0     -1908.341553   2435.815918  -21969.99609    200.448944
    6572           0     -2188.033936   2188.029541  -21969.99804    189.886520
    6573           0     -2435.820313   1908.335938  -21969.99804    176.813522
    6574           0     -2648.084717   1600.816528  -21969.99804    159.301285
    6575           0     -2821.733398   1269.955322  -21969.99804    135.265991
    6576           0     -2954.234863    920.577148  -21970.00000    118.621109
    6577           0     -3043.657959    557.774597  -21970.00000    152.902191
    6578           0     -3088.698242    186.833862  -21970.00000    233.266373
    6579           0      -186.835632   3088.698242  -21594.44335    219.935196
    6580           0      -557.779541   3043.656738  -21594.44335    215.553833
    6581           0      -920.584900   2954.232422  -21594.44335    212.285843
    6582           0     -1269.963623   2821.729980  -21594.44335    209.144730
    6583           0     -1600.823730   2648.080566  -21594.44335    204.622894
    6584           0     -1908.341553   2435.815918  -21594.44335    197.601593
    6585           0     -2188.033936   2188.029541  -21594.44335    188.014542
    6586           0     -2435.820313   1908.335938  -21594.44531    175.814056
    6587           0     -2648.084717   1600.816528  -21594.44531    158.777893
    6588           0     -2821.733398   1269.955322  -21594.44531    134.806488
    6589           0     -2954.234863    920.577148  -21594.44531    119.339127
    6590           0     -3043.657959    557.774536  -21594.44335    156.608963
    6591           0     -3088.698242    186.833786  -21594.44335    238.092499
    6592           0      -186.835617   3088.698242  -21218.88867    213.246933
    6593           0      -557.779480   3043.656982  -21218.88867    209.249298
    6594           0      -920.584839   2954.232422  -21218.88867    206.626144
    6595           0     -1269.963623   2821.729980  -21218.88867    204.337585
    6596           0     -1600.823730   2648.080566  -21218.88867    200.764709
    6597           0     -1908.341431   2435.815918  -21218.88867    194.708633
    6598           0     -2188.033936   2188.029541  -21218.88867    186.101425
    6599           0     -2435.820313   1908.335938  -21218.88867    174.812469
    6600           0     -2648.084717   1600.816528  -21218.88867    158.316452
    6601           0     -2821.733398   1269.955322  -21218.88867    134.508942
    6602           0     -2954.234863    920.577026  -21218.88867    120.274399
    6603           0     -3043.657959    557.774475  -21218.88867    160.228439
    6604           0     -3088.698242    186.833786  -21218.88867    242.567078
    6605           0      -186.835602   3088.698242  -20843.33398    206.652023
    6606           0      -557.779419   3043.656982  -20843.33398    203.028152
    6607           0      -920.584717   2954.232422  -20843.33203    201.022507
    6608           0     -1269.963501   2821.729980  -20843.33203    199.549728
    6609           0     -1600.823730   2648.080566  -20843.33398    196.884293
    6610           0     -1908.341309   2435.815918  -20843.33203    191.763748
    6611           0     -2188.033691   2188.029541  -20843.33203    184.139053
    6612           0     -2435.820313   1908.335938  -20843.33203    173.798019
    6613           0     -2648.084717   1600.816528  -20843.33203    157.904358
    6614           0     -2821.733398   1269.955322  -20843.33203    134.356201
    6615           0     -2954.234863    920.577026  -20843.33203    121.377037
    6616           0     -3043.657959    557.774414  -20843.33203    163.704712
    6617           0     -3088.698242    186.833786  -20843.33203    246.669418
    6618           0      -186.835571   3088.698242  -20467.77929    200.158859
    6619           0      -557.779419   3043.657227  -20467.77929    196.894791
    6620           0      -920.584717   2954.232910  -20467.77929    195.476120
    6621           0     -1269.963501   2821.729980  -20467.77929    194.779907
    6622           0     -1600.823486   2648.080566  -20467.77929    192.977615
    6623           0     -1908.341309   2435.815918  -20467.77929    188.761093
    6624           0     -2188.033691   2188.029541  -20467.77734    182.120087
    6625           0     -2435.820313   1908.335938  -20467.77734    172.759659
    6626           0     -2648.084717   1600.816528  -20467.77734    157.529510
    6627           0     -2821.733398   1269.955322  -20467.77734    134.330124
    6628           0     -2954.234863    920.577026  -20467.77734    122.599129
    6629           0     -3043.657959    557.774414  -20467.77734    166.991058
    6630           0     -3088.698242    186.833786  -20467.77734    250.383438
    6631           0      -186.835571   3088.698242  -20092.22070    193.764816
    6632           0      -557.779297   3043.657227  -20092.22070    190.846405
    6633           0      -920.584656   2954.232910  -20092.22070    189.989258
    6634           0     -1269.963379   2821.729980  -20092.22070    190.026810
    6635           0     -1600.823486   2648.080566  -20092.22070    189.041428
    6636           0     -1908.341309   2435.815918  -20092.22070    185.695679
    6637           0     -2188.033691   2188.029541  -20092.22265    180.036133
    6638           0     -2435.820068   1908.335938  -20092.22265    171.686935
    6639           0     -2648.084717   1600.816528  -20092.22265    157.179199
    6640           0     -2821.733398   1269.955322  -20092.22265    134.412552
    6641           0     -2954.234863    920.577026  -20092.22265    123.895805
    6642           0     -3043.657959    557.774414  -20092.22265    170.046814
    6643           0     -3088.698242    186.833786  -20092.22265    253.697418
    6644           0      -186.835541   3088.698242  -19716.66601    187.474197
    6645           0      -557.779236   3043.657227  -19716.66796    184.887772
    6646           0      -920.584534   2954.232910  -19716.66601    184.561035
    6647           0     -1269.963379   2821.729980  -19716.66601    185.289337
    6648           0     -1600.823486   2648.080566  -19716.66601    185.070953
    6649           0     -1908.341309   2435.815918  -19716.66601    182.561966
    6650           0     -2188.033691   2188.029541  -19716.66601    177.880692
    6651           0     -2435.820068   1908.335938  -19716.66796    170.569275
    6652           0     -2648.084717   1600.816528  -19716.66796    156.841492
    6653           0     -2821.733398   1269.955322  -19716.66796    134.585617
    6654           0     -2954.234863    920.577026  -19716.66796    125.225281
    6655           0     -3043.657959    557.774414  -19716.66796    172.838882
    6656           0     -3088.698242    186.833786  -19716.66796    256.601105
    6657           0      -186.835541   3088.698242  -19341.11328    181.288849
    6658           0      -557.779236   3043.657227  -19341.11523    179.019775
    6659           0      -920.584473   2954.232910  -19341.11328    179.194199
    6660           0     -1269.963379   2821.729980  -19341.11328    180.566574
    6661           0     -1600.823364   2648.080566  -19341.11328    181.066193
    6662           0     -1908.341309   2435.816162  -19341.11328    179.357269
    6663           0     -2188.033691   2188.029785  -19341.11328    175.646149
    6664           0     -2435.820068   1908.335938  -19341.11328    169.396942
    6665           0     -2648.084717   1600.816528  -19341.11328    156.504044
    6666           0     -2821.733398   1269.955322  -19341.11328    134.830902
    6667           0     -2954.234863    920.577026  -19341.11328    126.549713
    6668           0     -3043.657959    557.774414  -19341.11328    175.339050
    6669           0     -3088.698242    186.833786  -19341.11132    259.084839
    6670           0      -186.835510   3088.698242  -18965.55468    175.210541
    6671           0      -557.779175   3043.657227  -18965.55468    173.245483
    6672           0      -920.584473   2954.232910  -18965.55468    173.888718
    6673           0     -1269.963257   2821.729980  -18965.55468    175.857590
    6674           0     -1600.823364   2648.080566  -18965.55468    177.021103
    6675           0     -1908.341309   2435.816162  -18965.55468    176.075211
    6676           0     -2188.033691   2188.029785  -18965.55468    173.327682
    6677           0     -2435.820068   1908.335938  -18965.55468    168.159821
    6678           0     -2648.084717   1600.816528  -18965.55468    156.155502
    6679           0     -2821.733398   1269.955322  -18965.55468    135.130844
    6680           0     -2954.234863    920.577026  -18965.55468    127.835602
    6681           0     -3043.657959    557.774414  -18965.55468    177.523392
    6682           0     -3088.698242    186.833786  -18965.55468    261.142334
    6683           0      -186.835480   3088.698242  -18590.00000    169.240875
    6684           0      -557.779114   3043.657227  -18590.00000    167.565445
    6685           0      -920.584412   2954.232910  -18590.00000    168.645416
    6686           0     -1269.963135   2821.729980  -18590.00000    171.161072
    6687           0     -1600.823364   2648.080566  -18590.00000    172.934891
    6688           0     -1908.341187   2435.816406  -18590.00000    172.718796
    6689           0     -2188.033691   2188.029785  -18590.00000    170.919342
    6690           0     -2435.820068   1908.335938  -18590.00000    166.848145
    6691           0     -2648.084717   1600.816528  -18590.00000    155.785156
    6692           0     -2821.733398   1269.955322  -18590.00000    135.467850
    6693           0     -2954.234863    920.577026  -18590.00000    129.053589
    6694           0     -3043.657959    557.774292  -18590.00000    179.372482
    6695           0     -3088.698242    186.833710  -18589.99804    262.767975
    6696           0      -186.835480   3088.698242  -18214.44531    163.381363
    6697           0      -557.779114   3043.657227  -18214.44531    161.981537
    6698           0      -920.584351   2954.232910  -18214.44531    163.464340
    6699           0     -1269.963135   2821.729980  -18214.44531    166.477112
    6700           0     -1600.823242   2648.080811  -18214.44531    168.810638
    6701           0     -1908.340942   2435.816406  -18214.44531    169.277496
    6702           0     -2188.033691   2188.029785  -18214.44531    168.415573
    6703           0     -2435.820068   1908.335938  -18214.44531    165.453873
    6704           0     -2648.084717   1600.816528  -18214.44531    155.381531
    6705           0     -2821.733398   1269.955322  -18214.44531    135.825943
    6706           0     -2954.234863    920.576904  -18214.44531    130.177109
    6707           0     -3043.657959    557.774170  -18214.44531    180.870483
    6708           0     -3088.698242    186.833633  -18214.44531    263.955994
    6709           0      -186.835449   3088.698242  -17838.88867    157.633514
    6710           0      -557.779053   3043.657227  -17838.88671    156.495239
    6711           0      -920.584229   2954.232910  -17838.88671    158.346802
    6712           0     -1269.963013   2821.729980  -17838.88671    161.804123
    6713           0     -1600.823120   2648.080811  -17838.88671    164.640717
    6714           0     -1908.340942   2435.816406  -17838.88671    165.755676
    6715           0     -2188.033691   2188.029785  -17838.88867    165.810898
    6716           0     -2435.820068   1908.335938  -17838.88867    163.970657
    6717           0     -2648.084717   1600.816528  -17838.88867    154.933716
    6718           0     -2821.733398   1269.955322  -17838.88867    136.189453
    6719           0     -2954.235107    920.576904  -17838.88867    131.185120
    6720           0     -3043.657959    557.774109  -17838.88867    182.003326
    6721           0     -3088.698242    186.833633  -17838.88867    264.702179
    6722           0      -186.835449   3088.698242  -17463.33398    151.998703
    6723           0      -557.778992   3043.657227  -17463.33593    151.107422
    6724           0      -920.584229   2954.232910  -17463.33593    153.292633
    6725           0     -1269.962891   2821.729980  -17463.33593    157.142563
    6726           0     -1600.822998   2648.080811  -17463.33398    160.429962
    6727           0     -1908.340942   2435.816406  -17463.33398    162.153458
    6728           0     -2188.033691   2188.029785  -17463.33398    163.105469
    6729           0     -2435.820068   1908.335938  -17463.33203    162.388870
    6730           0     -2648.084717   1600.816528  -17463.33203    154.432892
    6731           0     -2821.733398   1269.955322  -17463.33203    136.543091
    6732           0     -2954.235107    920.576904  -17463.33398    132.058365
    6733           0     -3043.657959    557.774109  -17463.33203    182.760590
    6734           0     -3088.698242    186.833633  -17463.33203    265.001648
    6735           0      -186.835419   3088.698242  -17087.77929    146.478073
    6736           0      -557.778931   3043.657227  -17087.78125    145.819489
    6737           0      -920.584106   2954.232910  -17087.78125    148.302948
    6738           0     -1269.962891   2821.729980  -17087.78125    152.493576
    6739           0     -1600.822998   2648.080811  -17087.77929    156.178040
    6740           0     -1908.340942   2435.816406  -17087.77929    158.468231
    6741           0     -2188.033691   2188.029785  -17087.77929    160.293732
    6742           0     -2435.820068   1908.335938  -17087.77929    160.704468
    6743           0     -2648.084717   1600.816528  -17087.77734    153.869003
    6744           0     -2821.733398   1269.955322  -17087.77734    136.873291
    6745           0     -2954.235352    920.576782  -17087.77734    132.782272
    6746           0     -3043.657959    557.774109  -17087.77734    183.132767
    6747           0     -3088.698242    186.833633  -17087.77734    264.850800
    6748           0      -186.835388   3088.698242  -16712.22460    141.072556
    6749           0      -557.778870   3043.657227  -16712.22656    140.631592
    6750           0      -920.584045   2954.232910  -16712.22656    143.378189
    6751           0     -1269.962891   2821.730225  -16712.22460    147.857407
    6752           0     -1600.822998   2648.081055  -16712.22460    151.887375
    6753           0     -1908.340942   2435.816406  -16712.22460    154.703430
    6754           0     -2188.033691   2188.029785  -16712.22265    157.376816
    6755           0     -2435.820068   1908.335938  -16712.22265    158.913589
    6756           0     -2648.084717   1600.816528  -16712.22265    153.233536
    6757           0     -2821.733643   1269.955078  -16712.22265    137.164978
    6758           0     -2954.235352    920.576782  -16712.22265    133.345642
    6759           0     -3043.657959    557.774109  -16712.22265    183.113007
    6760           0     -3088.698242    186.833633  -16712.22265    264.244873
    6761           0      -186.835358   3088.698242  -16336.66992    135.782013
    6762           0      -557.778809   3043.657227  -16336.67187    135.545181
    6763           0      -920.583984   2954.232910  -16336.66992    138.518921
    6764           0     -1269.962769   2821.730225  -16336.66992    143.236221
    6765           0     -1600.822998   2648.081055  -16336.66992    147.559418
    6766           0     -1908.340942   2435.816406  -16336.66992    150.862259
    6767           0     -2188.033447   2188.029785  -16336.66992    154.355362
    6768           0     -2435.820068   1908.335938  -16336.66796    157.007355
    6769           0     -2648.084961   1600.816406  -16336.66796    152.517197
    6770           0     -2821.733643   1269.955078  -16336.66796    137.410461
    6771           0     -2954.235352    920.576782  -16336.66796    133.736893
    6772           0     -3043.657959    557.774109  -16336.66796    182.697006
    6773           0     -3088.698242    186.833633  -16336.66601    263.179077
    6774           0      -186.835358   3088.698242  -15961.10839    130.608124
    6775           0      -557.778809   3043.657227  -15961.10546    130.561066
    6776           0      -920.583923   2954.232910  -15961.10644    133.726440
    6777           0     -1269.962646   2821.730225  -15961.10644    138.632202
    6778           0     -1600.822998   2648.081055  -15961.10742    143.200378
    6779           0     -1908.340820   2435.816406  -15961.10742    146.948105
    6780           0     -2188.033447   2188.029785  -15961.10742    151.227982
    6781           0     -2435.820068   1908.335938  -15961.10839    154.987289
    6782           0     -2648.084961   1600.816406  -15961.10839    151.712143
    6783           0     -2821.733643   1269.955078  -15961.10937    137.596909
    6784           0     -2954.235352    920.576782  -15961.10937    133.951569
    6785           0     -3043.657959    557.774109  -15961.10937    181.880173
    6786           0     -3088.698242    186.833633  -15961.11035    261.649933
    6787           0      -186.835327   3088.698242  -15585.55175    125.550636
    6788           0      -557.778687   3043.657227  -15585.54882    125.679573
    6789           0      -920.583862   2954.232910  -15585.54882    129.003448
    6790           0     -1269.962646   2821.730225  -15585.54980    134.048294
    6791           0     -1600.822754   2648.081055  -15585.55078    138.813934
    6792           0     -1908.340820   2435.816406  -15585.55078    142.966293
    6793           0     -2188.033203   2188.029785  -15585.55078    148.001480
    6794           0     -2435.820068   1908.335938  -15585.55078    152.851456
    6795           0     -2648.084961   1600.816406  -15585.55078    150.811569
    6796           0     -2821.733643   1269.955078  -15585.55273    137.713318
    6797           0     -2954.235352    920.576660  -15585.55371    133.985275
    6798           0     -3043.657959    557.774048  -15585.55468    180.661377
    6799           0     -3088.698242    186.833633  -15585.55468    259.651794
    6800           0      -186.835312   3088.698242  -15209.99902    120.609886
    6801           0      -557.778687   3043.657227  -15210.00000    120.900566
    6802           0      -920.583862   2954.232910  -15209.99902    124.349052
    6803           0     -1269.962646   2821.730469  -15209.99902    129.488098
    6804           0     -1600.822754   2648.081055  -15209.99902    134.405975
    6805           0     -1908.340576   2435.816406  -15209.99902    138.925049
    6806           0     -2188.033203   2188.029785  -15209.99902    144.678299
    6807           0     -2435.820068   1908.335938  -15209.99902    150.596680
    6808           0     -2648.084961   1600.816406  -15209.99902    149.810165
    6809           0     -2821.733643   1269.955078  -15210.00000    137.751953
    6810           0     -2954.235352    920.576660  -15210.00000    133.837219
    6811           0     -3043.657959    557.773926  -15209.99902    179.039749
    6812           0     -3088.698242    186.833557  -15209.99902    257.179871
    6813           0      -186.835297   3088.698242  -14834.44335    115.786201
    6814           0      -557.778625   3043.657227  -14834.44335    116.223480
    6815           0      -920.583740   2954.232910  -14834.44335    119.768089
    6816           0     -1269.962524   2821.730469  -14834.44335    124.956642
    6817           0     -1600.822754   2648.081055  -14834.44335    129.983536
    6818           0     -1908.340576   2435.816406  -14834.44335    134.831711
    6819           0     -2188.033203   2188.029785  -14834.44335    141.265701
    6820           0     -2435.820068   1908.335938  -14834.44335    148.226212
    6821           0     -2648.084961   1600.816406  -14834.44335    148.701202
    6822           0     -2821.733643   1269.955078  -14834.44335    137.704208
    6823           0     -2954.235352    920.576660  -14834.44335    133.508530
    6824           0     -3043.657959    557.773865  -14834.44335    177.017014
    6825           0     -3088.698242    186.833496  -14834.44335    254.229111
    6826           0      -186.835266   3088.698242  -14458.88769    111.079483
    6827           0      -557.778564   3043.657227  -14458.88671    111.652939
    6828           0      -920.583740   2954.232910  -14458.88769    115.257820
    6829           0     -1269.962524   2821.730469  -14458.88769    120.457520
    6830           0     -1600.822632   2648.081055  -14458.88769    125.555344
    6831           0     -1908.340576   2435.816406  -14458.88769    130.696579
    6832           0     -2188.033203   2188.029785  -14458.88769    137.771942
    6833           0     -2435.820068   1908.335938  -14458.88769    145.741364
    6834           0     -2648.084961   1600.816406  -14458.88769    147.480865
    6835           0     -2821.733643   1269.955078  -14458.88769    137.563477
    6836           0     -2954.235352    920.576660  -14458.88769    133.002426
    6837           0     -3043.657959    557.773865  -14458.88867    174.596252
    6838           0     -3088.698242    186.833496  -14458.88867    250.793900
    6839           0      -186.835266   3088.698242  -14083.33105    106.488655
    6840           0      -557.778503   3043.657227  -14083.33007    107.184395
    6841           0      -920.583618   2954.232910  -14083.33007    110.824638
    6842           0     -1269.962402   2821.730469  -14083.33007    115.998077
    6843           0     -1600.822510   2648.081055  -14083.33105    121.130943
    6844           0     -1908.340576   2435.816406  -14083.33105    126.531113
    6845           0     -2188.033203   2188.029785  -14083.33105    134.207291
    6846           0     -2435.820068   1908.335938  -14083.33105    143.147507
    6847           0     -2648.084961   1600.816406  -14083.33105    146.145126
    6848           0     -2821.733643   1269.955078  -14083.33105    137.323212
    6849           0     -2954.235352    920.576660  -14083.33203    132.325180
    6850           0     -3043.657959    557.773865  -14083.33300    171.782135
    6851           0     -3088.698242    186.833496  -14083.33300    246.868576
    6852           0      -186.835236   3088.698242  -13707.77539    102.014153
    6853           0      -557.778503   3043.657227  -13707.77343    102.821533
    6854           0      -920.583557   2954.232910  -13707.77441    106.471039
    6855           0     -1269.962402   2821.730469  -13707.77441    111.583847
    6856           0     -1600.822510   2648.081055  -13707.77539    116.720390
    6857           0     -1908.340576   2435.816406  -13707.77539    122.348961
    6858           0     -2188.033203   2188.029785  -13707.77539    130.583939
    6859           0     -2435.820068   1908.335938  -13707.77539    140.450577
    6860           0     -2648.084961   1600.816406  -13707.77539    144.691757
    6861           0     -2821.733643   1269.955078  -13707.77636    136.978134
    6862           0     -2954.235352    920.576660  -13707.77636    131.484634
    6863           0     -3043.657959    557.773865  -13707.77734    168.582733
    6864           0     -3088.698242    186.833496  -13707.77734    242.447510
    6865           0      -186.835220   3088.698242  -13332.22460     97.656296
    6866           0      -557.778442   3043.657227  -13332.22656     98.563614
    6867           0      -920.583496   2954.232910  -13332.22656    102.198532
    6868           0     -1269.962402   2821.730469  -13332.22656    107.221855
    6869           0     -1600.822510   2648.081055  -13332.22460    112.339005
    6870           0     -1908.340576   2435.816406  -13332.22460    118.166389
    6871           0     -2188.033203   2188.029785  -13332.22460    126.916206
    6872           0     -2435.820068   1908.335938  -13332.22363    137.659531
    6873           0     -2648.084961   1600.816406  -13332.22363    143.120148
    6874           0     -2821.733643   1269.955078  -13332.22265    136.523804
    6875           0     -2954.235352    920.576660  -13332.22265    130.491379
    6876           0     -3043.657959    557.773865  -13332.22168    165.006729
    6877           0     -3088.698242    186.833496  -13332.22168    237.525620
    6878           0      -186.835205   3088.698242  -12956.67382     93.415009
    6879           0      -557.778320   3043.657227  -12956.67773     94.412338
    6880           0      -920.583435   2954.232910  -12956.67773     98.012383
    6881           0     -1269.962280   2821.730469  -12956.67675    102.924843
    6882           0     -1600.822510   2648.081299  -12956.67480    107.994957
    6883           0     -1908.340576   2435.816650  -12956.67382    113.998100
    6884           0     -2188.033203   2188.029785  -12956.67382    123.221092
    6885           0     -2435.819824   1908.336060  -12956.67285    134.785095
    6886           0     -2648.084961   1600.816406  -12956.67187    141.427704
    6887           0     -2821.733643   1269.955078  -12956.67089    135.956406
    6888           0     -2954.235352    920.576660  -12956.66992    129.356964
    6889           0     -3043.657959    557.773865  -12956.66796    161.068268
    6890           0     -3088.698242    186.833496  -12956.66796    232.095047
    6891           0      -186.835175   3088.698242  -12581.11718     89.290024
    6892           0      -557.778320   3043.657227  -12581.12304     90.368736
    6893           0      -920.583374   2954.232910  -12581.12207     93.915573
    6894           0     -1269.962158   2821.730469  -12581.12109     98.697128
    6895           0     -1600.822388   2648.081299  -12581.12011    103.707031
    6896           0     -1908.340576   2435.816650  -12581.11914    109.865013
    6897           0     -2188.033203   2188.030029  -12581.11718    119.521141
    6898           0     -2435.819824   1908.336182  -12581.11718    131.839752
    6899           0     -2648.084961   1600.816406  -12581.11523    139.622040
    6900           0     -2821.733643   1269.955078  -12581.11523    135.274429
    6901           0     -2954.235352    920.576538  -12581.11523    128.096405
    6902           0     -3043.657959    557.773804  -12581.11328    156.784286
    6903           0     -3088.698242    186.833496  -12581.11328    226.153778
    6904           0      -186.835175   3088.698242  -12205.56054     85.282684
    6905           0      -557.778259   3043.657227  -12205.56445     86.433708
    6906           0      -920.583313   2954.232910  -12205.56445     89.913651
    6907           0     -1269.962158   2821.730469  -12205.56445     94.550941
    6908           0     -1600.822388   2648.081299  -12205.56250     99.492462
    6909           0     -1908.340332   2435.816895  -12205.56152    105.790634
    6910           0     -2188.033203   2188.030273  -12205.56152    115.832832
    6911           0     -2435.819824   1908.336182  -12205.56054    128.837967
    6912           0     -2648.084961   1600.816406  -12205.55859    137.699814
    6913           0     -2821.733643   1269.955078  -12205.55859    134.474808
    6914           0     -2954.235352    920.576538  -12205.55859    126.726807
    6915           0     -3043.657959    557.773682  -12205.55664    152.174088
    6916           0     -3088.698242    186.833496  -12205.55664    219.696701
    6917           0      -186.835144   3088.698242  -11830.00000     81.393326
    6918           0      -557.778259   3043.657227  -11830.00000     82.610641
    6919           0      -920.583252   2954.232910  -11830.00000     86.012985
    6920           0     -1269.962158   2821.730469  -11830.00000     90.499115
    6921           0     -1600.822266   2648.081299  -11830.00097     95.368568
    6922           0     -1908.340210   2435.816895  -11830.00097    101.794975
    6923           0     -2188.033203   2188.030273  -11830.00000    112.184067
    6924           0     -2435.819824   1908.336182  -11830.00000    125.799347
    6925           0     -2648.084961   1600.816406  -11830.00000    135.672623
    6926           0     -2821.733643   1269.955078  -11830.00000    133.557266
    6927           0     -2954.235352    920.576538  -11830.00000    125.265137
    6928           0     -3043.658203    557.773621  -11830.00000    147.265564
    6929           0     -3088.698486    186.833420  -11830.00097    212.720764
    6930           0      -186.835144   3088.698242  -11454.43945     77.623322
    6931           0      -557.778198   3043.657227  -11454.43554     78.901863
    6932           0      -920.583252   2954.232910  -11454.43652     82.219368
    6933           0     -1269.962036   2821.730469  -11454.43750     86.553627
    6934           0     -1600.822266   2648.081299  -11454.43945     91.356178
    6935           0     -1908.340210   2435.816895  -11454.43945     97.906387
    6936           0     -2188.033203   2188.030273  -11454.43945    108.602364
    6937           0     -2435.819824   1908.336182  -11454.44140    122.743523
    6938           0     -2648.084961   1600.816406  -11454.44140    133.545441
    6939           0     -2821.733643   1269.955078  -11454.44140    132.522034
    6940           0     -2954.235352    920.576538  -11454.44335    123.732697
    6941           0     -3043.658203    557.773560  -11454.44335    142.090530
    6942           0     -3088.698730    186.833344  -11454.44335    205.223938
    6943           0      -186.835114   3088.698242  -11078.88671     73.974319
    6944           0      -557.778137   3043.657227  -11078.88671     75.310707
    6945           0      -920.583130   2954.233154  -11078.88769     78.539551
    6946           0     -1269.961914   2821.730469  -11078.88769     82.730995
    6947           0     -1600.822266   2648.081299  -11078.88769     87.477287
    6948           0     -1908.340210   2435.816895  -11078.88769     94.152687
    6949           0     -2188.033203   2188.030273  -11078.88769    105.114845
    6950           0     -2435.819824   1908.336182  -11078.88671    119.693565
    6951           0     -2648.084961   1600.816406  -11078.88671    131.328857
    6952           0     -2821.733643   1269.955078  -11078.88671    131.370926
    6953           0     -2954.235352    920.576538  -11078.88867    122.150246
    6954           0     -3043.658203    557.773560  -11078.88867    136.689255
    6955           0     -3088.698730    186.833344  -11078.88867    197.207825
    6956           0      -186.835083   3088.698242  -10703.33105     70.448753
    6957           0      -557.778076   3043.657227  -10703.33007     71.841835
    6958           0      -920.583069   2954.233154  -10703.33007     74.985992
    6959           0     -1269.961914   2821.730469  -10703.33007     79.042572
    6960           0     -1600.822144   2648.081543  -10703.33105     83.756035
    6961           0     -1908.340210   2435.816895  -10703.33105     90.564171
    6962           0     -2188.033203   2188.030273  -10703.33105    101.754135
    6963           0     -2435.819824   1908.336182  -10703.33105    116.674141
    6964           0     -2648.084961   1600.816406  -10703.33105    129.035339
    6965           0     -2821.733643   1269.955078  -10703.33203    130.106461
    6966           0     -2954.235352    920.576538  -10703.33203    120.541267
    6967           0     -3043.658203    557.773560  -10703.33203    131.111084
    6968           0     -3088.698730    186.833344  -10703.33300    188.676712
    6969           0      -186.835083   3088.698242  -10327.77539     67.049721
    6970           0      -557.778015   3043.657227  -10327.77343     68.500748
    6971           0      -920.583008   2954.233154  -10327.77343     71.564697
    6972           0     -1269.961914   2821.730469  -10327.77343     75.510086
    6973           0     -1600.822021   2648.081543  -10327.77441     80.219139
    6974           0     -1908.340210   2435.816895  -10327.77441     87.173767
    6975           0     -2188.033203   2188.030273  -10327.77539     98.552185
    6976           0     -2435.819824   1908.336182  -10327.77539    113.713043
    6977           0     -2648.084961   1600.816406  -10327.77539    126.679207
    6978           0     -2821.733643   1269.955078  -10327.77539    128.733368
    6979           0     -2954.235352    920.576538  -10327.77636    118.929062
    6980           0     -3043.658203    557.773560  -10327.77734    125.417915
    6981           0     -3088.698730    186.833344  -10327.77734    179.639725
    6982           0      -186.835052   3088.698242  -9952.218750     63.781151
    6983           0      -557.777954   3043.657227  -9952.216797     65.294266
    6984           0      -920.582947   2954.233154  -9952.216797     68.289345
    6985           0     -1269.961792   2821.730713  -9952.216797     72.152100
    6986           0     -1600.822021   2648.081543  -9952.217773     76.894989
    6987           0     -1908.340210   2435.816895  -9952.217773     84.014427
    6988           0     -2188.033203   2188.030273  -9952.218750     95.544197
    6989           0     -2435.819824   1908.336182  -9952.218750    110.838516
    6990           0     -2648.084961   1600.816406  -9952.218750    124.278008
    6991           0     -2821.733643   1269.955078  -9952.218750    127.256981
    6992           0     -2954.235352    920.576416  -9952.219727    117.338707
    6993           0     -3043.658203    557.773499  -9952.220703    119.683754
    6994           0     -3088.698730    186.833344  -9952.220703    170.112671
    6995           0      -186.835052   3088.698242  -9576.662109     60.647537
    6996           0      -557.777954   3043.657227  -9576.659180     62.229534
    6997           0      -920.582886   2954.233154  -9576.660156     65.173897
    6998           0     -1269.961670   2821.730713  -9576.661133     68.989967
    6999           0     -1600.822021   2648.081543  -9576.661133     73.812889
    7000           0     -1908.340210   2435.816895  -9576.661133     81.121346
    7001           0     -2188.033203   2188.030273  -9576.662109     92.763481
    7002           0     -2435.819824   1908.336182  -9576.662109    108.081017
    7003           0     -2648.084961   1600.816406  -9576.662109    121.850044
    7004           0     -2821.733643   1269.955078  -9576.663086    125.685356
    7005           0     -2954.235352    920.576294  -9576.665039    115.794502
    7006           0     -3043.658203    557.773376  -9576.665039    114.000603
    7007           0     -3088.698730    186.833344  -9576.666016    160.119202
    7008           0      -186.835022   3088.698242  -9201.111328     57.655067
    7009           0      -557.777893   3043.657227  -9201.112305     59.316525
    7010           0      -920.582825   2954.233154  -9201.112305     62.233688
    7011           0     -1269.961670   2821.730713  -9201.111328     66.047913
    7012           0     -1600.822021   2648.081543  -9201.112305     71.004890
    7013           0     -1908.340088   2435.816895  -9201.112305     78.528542
    7014           0     -2188.033203   2188.030273  -9201.111328     90.244652
    7015           0     -2435.819824   1908.336182  -9201.111328    105.470451
    7016           0     -2648.084961   1600.816406  -9201.111328    119.417160
    7017           0     -2821.733643   1269.955078  -9201.112305    124.026970
    7018           0     -2954.235352    920.576294  -9201.112305    114.321182
    7019           0     -3043.658203    557.773376  -9201.111328    108.477425
    7020           0     -3088.698730    186.833344  -9201.111328    149.697037
    7021           0      -186.835007   3088.698242  -8825.559570     54.810455
    7022           0      -557.777832   3043.657227  -8825.563477     56.566090
    7023           0      -920.582764   2954.233398  -8825.561523     59.486309
    7024           0     -1269.961670   2821.730713  -8825.560547     63.351948
    7025           0     -1600.821777   2648.081543  -8825.560547     68.502739
    7026           0     -1908.340088   2435.816895  -8825.560547     76.269958
    7027           0     -2188.033203   2188.030273  -8825.559570     88.018791
    7028           0     -2435.819824   1908.336182  -8825.558594    103.037254
    7029           0     -2648.084961   1600.816406  -8825.558594    117.001213
    7030           0     -2821.733643   1269.955078  -8825.557617    122.294136
    7031           0     -2954.235352    920.576294  -8825.557617    112.941422
    7032           0     -3043.658203    557.773376  -8825.556641    103.247612
    7033           0     -3088.698730    186.833344  -8825.555664    138.900909
    7034           0      -186.834991   3088.698242  -8450.000977     52.122185
    7035           0      -557.777771   3043.657227  -8450.000977     53.990234
    7036           0      -920.582764   2954.233398  -8450.000977     56.951248
    7037           0     -1269.961670   2821.730713  -8450.000977     60.929394
    7038           0     -1600.821777   2648.081543  -8450.000977     66.338806
    7039           0     -1908.340088   2435.816895  -8450.000977     74.375343
    7040           0     -2188.033203   2188.030273  -8450.000977     86.115334
    7041           0     -2435.819824   1908.336182  -8450.000977    100.808708
    7042           0     -2648.084961   1600.816406  -8450.000977    114.626572
    7043           0     -2821.733643   1269.955078  -8450.000977    120.498535
    7044           0     -2954.235352    920.576294  -8450.000977    111.678490
    7045           0     -3043.658203    557.773315  -8450.000977     98.461304
    7046           0     -3088.698730    186.833282  -8450.000977    127.813683
    7047           0      -186.834961   3088.698242  -8074.442383     49.599804
    7048           0      -557.777710   3043.657227  -8074.439453     51.602627
    7049           0      -920.582642   2954.233398  -8074.439453     54.649502
    7050           0     -1269.961548   2821.730713  -8074.440430     58.809055
    7051           0     -1600.821777   2648.081543  -8074.441406     64.542709
    7052           0     -1908.339966   2435.816895  -8074.441406     72.872314
    7053           0     -2188.033203   2188.030273  -8074.441406     84.557220
    7054           0     -2435.819824   1908.336182  -8074.442383     98.811264
    7055           0     -2648.084961   1600.816406  -8074.442383    112.316025
    7056           0     -2821.733643   1269.955078  -8074.443359    118.656372
    7057           0     -2954.235352    920.576294  -8074.444336    110.550804
    7058           0     -3043.658203    557.773254  -8074.445313     94.293327
    7059           0     -3088.698730    186.833206  -8074.445313    116.554314
    7060           0      -186.834961   3088.698242  -7698.890625     47.254169
    7061           0      -557.777649   3043.657227  -7698.891602     49.418503
    7062           0      -920.582581   2954.233398  -7698.891113     52.603054
    7063           0     -1269.961426   2821.730713  -7698.891113     57.018772
    7064           0     -1600.821777   2648.081543  -7698.891113     63.142105
    7065           0     -1908.339844   2435.817139  -7698.891113     71.780647
    7066           0     -2188.032959   2188.030273  -7698.890625     83.363495
    7067           0     -2435.819824   1908.336182  -7698.890137     97.065430
    7068           0     -2648.084961   1600.816406  -7698.890137    110.094269
    7069           0     -2821.733643   1269.955078  -7698.890137    116.782265
    7070           0     -2954.235352    920.576294  -7698.890137    109.578056
    7071           0     -3043.658203    557.773254  -7698.889648     90.922691
    7072           0     -3088.698730    186.833206  -7698.889160    105.305328
    7073           0      -186.834930   3088.698242  -7323.333984     45.096825
    7074           0      -557.777649   3043.657227  -7323.333984     47.455097
    7075           0      -920.582458   2954.233398  -7323.334473     50.835354
    7076           0     -1269.961304   2821.730957  -7323.333984     55.579540
    7077           0     -1600.821655   2648.081543  -7323.333984     62.160362
    7078           0     -1908.339844   2435.817139  -7323.334473     71.115395
    7079           0     -2188.032959   2188.030273  -7323.333984     82.543648
    7080           0     -2435.819824   1908.336182  -7323.333496     95.589516
    7081           0     -2648.084961   1600.816406  -7323.333984    107.981316
    7082           0     -2821.733643   1269.955078  -7323.333984    114.895935
    7083           0     -2954.235352    920.576294  -7323.333496    108.772499
    7084           0     -3043.658203    557.773254  -7323.333496     88.530846
    7085           0     -3088.698730    186.833206  -7323.333496     94.336685
    7086           0      -186.834915   3088.698242  -6947.776367     43.140713
    7087           0      -557.777588   3043.657227  -6947.775391     45.726730
    7088           0      -920.582458   2954.233398  -6947.775879     49.363548
    7089           0     -1269.961304   2821.730957  -6947.775879     54.520981
    7090           0     -1600.821533   2648.081787  -6947.776367     61.610970
    7091           0     -1908.339844   2435.817139  -6947.776855     70.880035
    7092           0     -2188.032959   2188.030273  -6947.776367     82.103485
    7093           0     -2435.819824   1908.336182  -6947.775879     94.392883
    7094           0     -2648.084961   1600.816406  -6947.776367    105.998337
    7095           0     -2821.733643   1269.955078  -6947.776855    113.013367
    7096           0     -2954.235352    920.576294  -6947.776855    108.149193
    7097           0     -3043.658203    557.773193  -6947.777344     87.264587
    7098           0     -3088.698730    186.833206  -6947.777832     84.067787
    7099           0      -186.834900   3088.698242  -6572.225586     41.399357
    7100           0      -557.777527   3043.657227  -6572.228027     44.247334
    7101           0      -920.582397   2954.233398  -6572.227539     48.211842
    7102           0     -1269.961182   2821.730957  -6572.226563     53.857567
    7103           0     -1600.821533   2648.081787  -6572.226074     61.496635
    7104           0     -1908.339844   2435.817139  -6572.226074     71.072884
    7105           0     -2188.032959   2188.030273  -6572.225098     82.037903
    7106           0     -2435.819824   1908.336182  -6572.224609     93.481819
    7107           0     -2648.084961   1600.816406  -6572.224609    104.159195
    7108           0     -2821.733643   1269.955078  -6572.223633    111.156258
    7109           0     -2954.235352    920.576172  -6572.223145    107.712692
    7110           0     -3043.658203    557.773132  -6572.223145     87.231247
    7111           0     -3088.698730    186.833206  -6572.222656     75.114464
    7112           0      -186.834869   3088.698242  -6196.667480     39.886196
    7113           0      -557.777466   3043.657227  -6196.667969     43.031681
    7114           0      -920.582275   2954.233398  -6196.667969     47.391624
    7115           0     -1269.961182   2821.730957  -6196.667480     53.596157
    7116           0     -1600.821533   2648.081787  -6196.667480     61.817993
    7117           0     -1908.339844   2435.817139  -6196.667969     71.681328
    7118           0     -2188.032959   2188.030273  -6196.667480     82.338989
    7119           0     -2435.819824   1908.336182  -6196.666992     92.853020
    7120           0     -2648.084961   1600.816406  -6196.667480    102.478210
    7121           0     -2821.733643   1269.955078  -6196.667480    109.338997
    7122           0     -2954.235352    920.576172  -6196.666992    107.474434
    7123           0     -3043.658203    557.773132  -6196.666992     88.454269
    7124           0     -3088.698730    186.833206  -6196.666992     68.358612
    7125           0      -186.834869   3088.698242  -5821.109375     38.613548
    7126           0      -557.777466   3043.657227  -5821.107910     42.091152
    7127           0      -920.582275   2954.233398  -5821.107910     46.910950
    7128           0     -1269.961182   2821.730957  -5821.107910     53.736271
    7129           0     -1600.821533   2648.081787  -5821.108887     62.561237
    7130           0     -1908.339844   2435.817139  -5821.108887     72.690315
    7131           0     -2188.032959   2188.030273  -5821.108887     82.987167
    7132           0     -2435.819824   1908.336304  -5821.108887     92.501366
    7133           0     -2648.084961   1600.816284  -5821.109863    100.959534
    7134           0     -2821.733643   1269.955078  -5821.110352    107.583817
    7135           0     -2954.235352    920.576172  -5821.110352    107.430740
    7136           0     -3043.658203    557.773132  -5821.110840     90.901451
    7137           0     -3088.698730    186.833206  -5821.111328     64.816910
    7138           0      -186.834839   3088.698242  -5445.558105     37.591717
    7139           0      -557.777344   3043.657227  -5445.560059     41.433220
    7140           0      -920.582275   2954.233398  -5445.559570     46.770725
    7141           0     -1269.961182   2821.730957  -5445.559082     54.267780
    7142           0     -1600.821411   2648.081787  -5445.558594     63.708210
    7143           0     -1908.339844   2435.817139  -5445.558594     74.074089
    7144           0     -2188.032715   2188.030518  -5445.558105     83.965256
    7145           0     -2435.819824   1908.336426  -5445.557617     92.411949
    7146           0     -2648.084961   1600.816284  -5445.557617     99.608727
    7147           0     -2821.733887   1269.954834  -5445.557129    105.900406
    7148           0     -2954.235352    920.576172  -5445.556641    107.591774
    7149           0     -3043.658203    557.773132  -5445.556152     94.451889
    7150           0     -3088.698730    186.833206  -5445.555664     65.324959
    7151           0      -186.834839   3088.698242  -5070.000488     36.827587
    7152           0      -557.777344   3043.657227  -5070.000977     41.060398
    7153           0      -920.582153   2954.233398  -5070.000977     46.964878
    7154           0     -1269.961060   2821.730957  -5070.000977     55.173176
    7155           0     -1600.821411   2648.082031  -5070.000977     65.232574
    7156           0     -1908.339600   2435.817383  -5070.000977     75.795860
    7157           0     -2188.032715   2188.030518  -5070.000488     85.248711
    7158           0     -2435.819824   1908.336426  -5070.000000     92.578049
    7159           0     -2648.084961   1600.816284  -5070.000488     98.419289
    7160           0     -2821.733887   1269.954834  -5070.000488    104.308754
    7161           0     -2954.235352    920.576172  -5070.000000    107.947868
    7162           0     -3043.658203    557.773071  -5070.000000     98.971832
    7163           0     -3088.698730    186.833130  -5070.000000     69.980980
    7164           0      -186.834808   3088.698242  -4694.442383     36.324844
    7165           0      -557.777283   3043.657227  -4694.440918     40.968525
    7166           0      -920.582092   2954.233398  -4694.441406     47.482025
    7167           0     -1269.960938   2821.730957  -4694.441406     56.426544
    7168           0     -1600.821289   2648.082031  -4694.441895     67.103027
    7169           0     -1908.339478   2435.817383  -4694.442383     77.846619
    7170           0     -2188.032715   2188.030762  -4694.442383     86.800522
    7171           0     -2435.819824   1908.336426  -4694.442383     92.970413
    7172           0     -2648.084961   1600.816284  -4694.442871     97.389450
    7173           0     -2821.733887   1269.954834  -4694.443359    102.810272
    7174           0     -2954.235352    920.576172  -4694.443359    108.513741
    7175           0     -3043.658203    557.773010  -4694.443848    104.271759
    7176           0     -3088.698730    186.833069  -4694.444824     78.207062
    7177           0      -186.834778   3088.698242  -4318.892090     36.081619
    7178           0      -557.777222   3043.657227  -4318.894531     41.149181
    7179           0      -920.582031   2954.233398  -4318.894531     48.302929
    7180           0     -1269.960938   2821.730957  -4318.893555     57.998257
    7181           0     -1600.821289   2648.082031  -4318.893555     69.278465
    7182           0     -1908.339478   2435.817383  -4318.892578     80.183022
    7183           0     -2188.032715   2188.030762  -4318.892090     88.621483
    7184           0     -2435.819824   1908.336426  -4318.891602     93.568184
    7185           0     -2648.084961   1600.816284  -4318.891113     96.498940
    7186           0     -2821.733887   1269.954834  -4318.890625    101.425995
    7187           0     -2954.235352    920.576172  -4318.890137    109.274330
    7188           0     -3043.658203    557.772949  -4318.889648    110.210999
    7189           0     -3088.698730    186.833069  -4318.889160     89.024780
    7190           0      -186.834778   3088.698242  -3943.334717     36.090607
    7191           0      -557.777222   3043.657227  -3943.335449     41.589256
    7192           0      -920.581970   2954.233398  -3943.335449     49.402897
    7193           0     -1269.960815   2821.730957  -3943.334961     59.858025
    7194           0     -1600.821167   2648.082031  -3943.334961     71.730232
    7195           0     -1908.339478   2435.817383  -3943.334961     82.771156
    7196           0     -2188.032715   2188.030762  -3943.334473     90.672272
    7197           0     -2435.819824   1908.336426  -3943.333984     94.355019
    7198           0     -2648.084961   1600.816284  -3943.333984     95.739120
    7199           0     -2821.733887   1269.954834  -3943.333984    100.147202
    7200           0     -2954.235352    920.576050  -3943.333496    110.255409
    7201           0     -3043.658203    557.772827  -3943.333496    116.613579
    7202           0     -3088.698730    186.833069  -3943.333740    101.647560
    7203           0      -186.834747   3088.698242  -3567.776123     36.341713
    7204           0      -557.777161   3043.657227  -3567.774658     42.269638
    7205           0      -920.581909   2954.233398  -3567.775146     50.757236
    7206           0     -1269.960815   2821.730957  -3567.775146     61.969540
    7207           0     -1600.821045   2648.082031  -3567.775635     74.427948
    7208           0     -1908.339478   2435.817383  -3567.776123     85.590912
    7209           0     -2188.032715   2188.030762  -3567.776123     92.928131
    7210           0     -2435.819824   1908.336426  -3567.776123     95.312294
    7211           0     -2648.084961   1600.816284  -3567.776611     95.088196
    7212           0     -2821.733887   1269.954834  -3567.777100     98.988762
    7213           0     -2954.235352    920.576050  -3567.777100    111.440613
    7214           0     -3043.658203    557.772827  -3567.777588    123.389374
    7215           0     -3088.698730    186.833069  -3567.778076    115.344887
    7216           0      -186.834747   3088.698242  -3192.224609     36.818764
    7217           0      -557.777100   3043.657227  -3192.227051     43.170799
    7218           0      -920.581787   2954.233398  -3192.226563     52.338219
    7219           0     -1269.960693   2821.730957  -3192.225830     64.306007
    7220           0     -1600.821045   2648.082031  -3192.225342     77.323433
    7221           0     -1908.339478   2435.817383  -3192.224854     88.612289
    7222           0     -2188.032715   2188.030762  -3192.224365     95.369240
    7223           0     -2435.819824   1908.336426  -3192.223877     96.419220
    7224           0     -2648.084961   1600.816284  -3192.223389     94.535995
    7225           0     -2821.733887   1269.954834  -3192.222900     97.928818
    7226           0     -2954.235352    920.576050  -3192.222412    112.874504
    7227           0     -3043.658203    557.772827  -3192.221924    130.422806
    7228           0     -3088.698730    186.833069  -3192.221436    129.766479
    7229           0      -186.834717   3088.698242  -2816.666016     37.502575
    7230           0      -557.776978   3043.657471  -2816.666016     44.269657
    7231           0      -920.581787   2954.233643  -2816.666016     54.115837
    7232           0     -1269.960693   2821.731201  -2816.666016     66.835381
    7233           0     -1600.821045   2648.082031  -2816.666016     80.420776
    7234           0     -1908.339478   2435.817383  -2816.666016     91.792534
    7235           0     -2188.032715   2188.030762  -2816.666016     97.972946
    7236           0     -2435.819824   1908.336426  -2816.666016     97.666229
    7237           0     -2648.084961   1600.816284  -2816.666016     94.061874
    7238           0     -2821.733887   1269.954834  -2816.666016     96.979836
    7239           0     -2954.235352    920.576050  -2816.666016    114.520088
    7240           0     -3043.658203    557.772827  -2816.666016    137.687302
    7241           0     -3088.698730    186.833069  -2816.665771    144.473465
    7242           0      -186.834686   3088.698242  -2441.107422     38.375401
    7243           0      -557.776978   3043.657471  -2441.104004     45.550385
    7244           0      -920.581665   2954.233643  -2441.104492     56.067120
    7245           0     -1269.960693   2821.731201  -2441.105469     69.529236
    7246           0     -1600.821045   2648.082031  -2441.106445     83.662148
    7247           0     -1908.339478   2435.817383  -2441.106934     95.127945
    7248           0     -2188.032715   2188.030762  -2441.107422    100.696121
    7249           0     -2435.819824   1908.336426  -2441.107910     99.012207
    7250           0     -2648.084961   1600.816284  -2441.108398     93.651375
    7251           0     -2821.733887   1269.954834  -2441.109375     96.107536
    7252           0     -2954.235352    920.576050  -2441.110352    116.445618
    7253           0     -3043.658203    557.772827  -2441.110840    145.134460
    7254           0     -3088.698730    186.833069  -2441.111328    159.361450
    7255           0      -186.834686   3088.698242  -2065.555420     39.407505
    7256           0      -557.776917   3043.657471  -2065.555908     46.971603
    7257           0      -920.581604   2954.233643  -2065.555420     58.166534
    7258           0     -1269.960693   2821.731201  -2065.555420     72.371910
    7259           0     -1600.821045   2648.082031  -2065.555908     87.069107
    7260           0     -1908.339355   2435.817383  -2065.555908     98.637886
    7261           0     -2188.032715   2188.030762  -2065.555420    103.610756
    7262           0     -2435.819824   1908.336426  -2065.554932    100.515411
    7263           0     -2648.084961   1600.816284  -2065.554932     93.329323
    7264           0     -2821.733887   1269.954834  -2065.555420     95.329384
    7265           0     -2954.235352    920.576050  -2065.555420    118.574532
    7266           0     -3043.658203    557.772827  -2065.554932    152.876358
    7267           0     -3088.698730    186.833069  -2065.554932    174.403519
    7268           0      -186.834656   3088.698242  -1689.999390     40.601398
    7269           0      -557.776917   3043.657471  -1690.000488     48.550533
    7270           0      -920.581604   2954.233643  -1690.000000     60.373539
    7271           0     -1269.960449   2821.731201  -1689.999390     75.273590
    7272           0     -1600.820801   2648.082031  -1689.999390     90.453369
    7273           0     -1908.339111   2435.817627  -1689.999390    102.072357
    7274           0     -2188.032715   2188.030762  -1689.999390    106.406555
    7275           0     -2435.819824   1908.336426  -1689.999390    101.919624
    7276           0     -2648.084961   1600.816284  -1689.999390     92.960350
    7277           0     -2821.733887   1269.954834  -1689.999390     94.597130
    7278           0     -2954.235352    920.576050  -1689.998901    120.867340
    7279           0     -3043.658203    557.772766  -1689.998413    160.466385
    7280           0     -3088.698730    186.832993  -1689.998413    188.781876
    7281           0      -186.834656   3088.698242  -1314.444336     41.906693
    7282           0      -557.776855   3043.657471  -1314.444824     50.236622
    7283           0      -920.581543   2954.233643  -1314.444824     62.816700
    7284           0     -1269.960449   2821.731201  -1314.444336     78.552315
    7285           0     -1600.820679   2648.082031  -1314.443848     94.433701
    7286           0     -1908.339111   2435.817627  -1314.443848    106.223450
    7287           0     -2188.032471   2188.030762  -1314.444336    109.996506
    7288           0     -2435.819824   1908.336426  -1314.444824    103.946045
    7289           0     -2648.084961   1600.816284  -1314.444824     92.893181
    7290           0     -2821.733887   1269.954834  -1314.444336     94.076149
    7291           0     -2954.235352    920.575928  -1314.443848    123.781693
    7292           0     -3043.658203    557.772644  -1314.443848    169.650864
    7293           0     -3088.698730    186.832916  -1314.443848    205.625122
    7294           0      -186.834625   3088.698242   -938.892883     43.230373
    7295           0      -557.776855   3043.657715   -938.897339     51.836353
    7296           0      -920.581482   2954.233643   -938.896851     64.770462
    7297           0     -1269.960327   2821.731201   -938.895874     80.878502
    7298           0     -1600.820679   2648.082031   -938.894897     96.877724
    7299           0     -1908.339111   2435.817627   -938.893921    108.532097
    7300           0     -2188.032471   2188.030762   -938.893433    111.632721
    7301           0     -2435.819824   1908.336426   -938.892944    104.570335
    7302           0     -2648.084961   1600.816284   -938.891846     92.137329
    7303           0     -2821.733887   1269.954834   -938.890869     93.308830
    7304           0     -2954.235352    920.575928   -938.889832    125.164619
    7305           0     -3043.658203    557.772522   -938.889343    174.550507
    7306           0     -3088.698730    186.832916   -938.888855    215.509781
    7307           0      -186.834610   3088.698486   -563.333313     45.286045
    7308           0      -557.776733   3043.657715   -563.335327     54.570267
    7309           0      -920.581421   2954.233643   -563.335327     68.904045
    7310           0     -1269.960327   2821.731201   -563.334839     86.642052
    7311           0     -1600.820679   2648.082031   -563.334839    104.104683
    7312           0     -1908.339111   2435.817627   -563.334351    116.310295
    7313           0     -2188.032471   2188.030762   -563.333801    118.681343
    7314           0     -2435.819824   1908.336426   -563.333313    108.927094
    7315           0     -2648.084961   1600.816284   -563.332825     92.896927
    7316           0     -2821.733887   1269.954834   -563.332825     93.364067
    7317           0     -2954.235352    920.575928   -563.332275    132.443085
    7318           0     -3043.658203    557.772522   -563.332336    192.012604
    7319           0     -3088.698730    186.832916   -563.332336    244.696045
    7320           0      -186.834595   3088.698486   -187.775253     45.141434
    7321           0      -557.776672   3043.657715   -187.773743     53.903851
    7322           0      -920.581360   2954.233643   -187.774246     67.255898
    7323           0     -1269.960205   2821.731445   -187.774246     83.777824
    7324           0     -1600.820557   2648.082520   -187.774750    100.028763
    7325           0     -1908.339111   2435.817871   -187.775253    111.543755
    7326           0     -2188.032471   2188.030762   -187.775253    114.042961
    7327           0     -2435.819824   1908.336426   -187.775253    105.779472
    7328           0     -2648.084961   1600.816284   -187.775757     91.810234
    7329           0     -2821.733887   1269.954834   -187.776260     92.490746
    7330           0     -2954.235352    920.575928   -187.776260    126.656891
    7331           0     -3043.658203    557.772522   -187.776764    181.123077
    7332           0     -3088.698730    186.832916   -187.777267    230.485291
    7333           0       186.795288  -3088.703125  -33612.22265    218.865692
    7334           0       557.659729  -3043.681396  -33612.22265    220.267365
    7335           0       920.396851  -2954.293213  -33612.22265    233.058304
    7336           0      1269.717041  -2821.843262  -33612.22265    255.564880
    7337           0      1600.529785  -2648.260498  -33612.22265    284.751312
    7338           0      1908.012695  -2436.076660  -33612.22265    315.374054
    7339           0      2187.682861  -2188.383789  -33612.22265    337.950745
    7340           0      2435.465332  -1908.792969  -33612.22265    335.443787
    7341           0      2647.746582  -1601.379883  -33612.22265    287.454865
    7342           0      2821.433838  -1270.626709  -33612.22265    202.708954
    7343           0       186.795776  -3088.703125  -33236.66796    240.623306
    7344           0       557.661011  -3043.681152  -33236.66796    241.754959
    7345           0       920.398804  -2954.292725  -33236.66796    255.074188
    7346           0      1269.719482  -2821.842285  -33236.66796    278.740173
    7347           0      1600.532349  -2648.258789  -33236.66796    309.302368
    7348           0      1908.015259  -2436.074463  -33236.66796    340.857422
    7349           0      2187.685059  -2188.381836  -33236.66796    361.853149
    7350           0      2435.466797  -1908.791260  -33236.66796    353.243988
    7351           0      2647.747559  -1601.378662  -33236.66796    291.255249
    7352           0      2821.434082  -1270.626343  -33236.66796    211.194702
    7353           0       186.795761  -3088.703125  -32861.11328    228.130341
    7354           0       557.661011  -3043.681152  -32861.11328    228.516922
    7355           0       920.398682  -2954.292725  -32861.11328    239.782654
    7356           0      1269.719482  -2821.842285  -32861.11328    260.227966
    7357           0      1600.532227  -2648.258789  -32861.11328    286.605530
    7358           0      1908.015137  -2436.074463  -32861.11328    312.504364
    7359           0      2187.684814  -2188.381836  -32861.11328    326.572235
    7360           0      2435.466553  -1908.791260  -32861.11328    310.377899
    7361           0      2647.747314  -1601.378662  -32861.11328    253.385544
    7362           0      2821.434082  -1270.626343  -32861.11328    204.774261
    7363           0       186.795761  -3088.703125  -32485.55664    229.094406
    7364           0       557.660950  -3043.681152  -32485.55664    228.939041
    7365           0       920.398621  -2954.292725  -32485.55664    239.261292
    7366           0      1269.719482  -2821.842285  -32485.55664    258.452972
    7367           0      1600.532227  -2648.259033  -32485.55664    283.079163
    7368           0      1908.015137  -2436.074463  -32485.55664    306.615387
    7369           0      2187.684814  -2188.381836  -32485.55664    316.505554
    7370           0      2435.466309  -1908.791260  -32485.55664    295.557404
    7371           0      2647.747314  -1601.378662  -32485.55664    238.428818
    7372           0      2821.434082  -1270.626343  -32485.55664    205.561096
    7373           0       186.795746  -3088.703125  -32110.00000    225.983185
    7374           0       557.660950  -3043.681152  -32110.00000    225.211777
    7375           0       920.398560  -2954.292725  -32110.00000    234.197311
    7376           0      1269.719360  -2821.842285  -32110.00000    251.409561
    7377           0      1600.532104  -2648.259277  -32110.00000    273.460876
    7378           0      1908.015015  -2436.074463  -32110.00000    293.189880
    7379           0      2187.684814  -2188.381836  -32110.00000    297.618347
    7380           0      2435.466309  -1908.791260  -32110.00000    270.570953
    7381           0      2647.747314  -1601.378662  -32110.00000    216.733276
    7382           0      2821.434082  -1270.626343  -32110.00000    205.075394
    7383           0       186.795731  -3088.703125  -31734.44531    224.040390
    7384           0       557.660889  -3043.681152  -31734.44531    222.694595
    7385           0       920.398560  -2954.292725  -31734.44531    230.465500
    7386           0      1269.719238  -2821.842529  -31734.44531    245.951553
    7387           0      1600.531982  -2648.259277  -31734.44531    265.645996
    7388           0      1908.015015  -2436.074707  -31734.44531    281.959564
    7389           0      2187.684570  -2188.381836  -31734.44531    281.489166
    7390           0      2435.466309  -1908.791382  -31734.44531    250.132782
    7391           0      2647.747314  -1601.378662  -31734.44531    201.950150
    7392           0      2821.434082  -1270.626343  -31734.44531    207.127930
    7393           0       186.795715  -3088.703125  -31358.88867    221.874542
    7394           0       557.660889  -3043.681152  -31358.88867    219.955795
    7395           0       920.398560  -2954.292969  -31358.88867    226.504257
    7396           0      1269.719238  -2821.842529  -31358.88867    240.207535
    7397           0      1600.531982  -2648.259277  -31358.88867    257.462494
    7398           0      1908.015015  -2436.074707  -31358.88867    270.131012
    7399           0      2187.684570  -2188.381836  -31358.88867    264.646301
    7400           0      2435.466309  -1908.791382  -31358.88867    229.131210
    7401           0      2647.747314  -1601.378906  -31358.88867    188.878998
    7402           0      2821.434082  -1270.626343  -31358.88867    209.578369
    7403           0       186.795700  -3088.703125  -30983.33398    219.824097
    7404           0       557.660828  -3043.681152  -30983.33398    217.321869
    7405           0       920.398499  -2954.292969  -30983.33398    222.655716
    7406           0      1269.719238  -2821.842529  -30983.33398    234.603424
    7407           0      1600.531982  -2648.259277  -30983.33398    249.349731
    7408           0      1908.014893  -2436.074707  -30983.33398    258.334595
    7409           0      2187.684570  -2188.382080  -30983.33398    247.868668
    7410           0      2435.466309  -1908.791382  -30983.33398    209.655853
    7411           0      2647.747314  -1601.378906  -30983.33398    180.161331
    7412           0      2821.434082  -1270.626465  -30983.33398    212.505280
    7413           0       186.795700  -3088.703125  -30607.77734    217.805038
    7414           0       557.660828  -3043.681152  -30607.77734    214.728912
    7415           0       920.398438  -2954.292969  -30607.77734    218.915222
    7416           0      1269.719238  -2821.842529  -30607.77734    229.089310
    7417           0      1600.531860  -2648.259277  -30607.77734    241.246353
    7418           0      1908.014893  -2436.074707  -30607.77734    246.414551
    7419           0      2187.684570  -2188.382080  -30607.77734    231.172897
    7420           0      2435.466309  -1908.791504  -30607.77734    191.379852
    7421           0      2647.747314  -1601.378906  -30607.77734    174.407120
    7422           0      2821.434082  -1270.626465  -30607.77734    215.136353
    7423           0       186.795685  -3088.703125  -30232.22265    215.838974
    7424           0       557.660767  -3043.681152  -30232.22265    212.214874
    7425           0       920.398376  -2954.292969  -30232.22265    215.234787
    7426           0      1269.719238  -2821.842529  -30232.22265    223.632370
    7427           0      1600.531860  -2648.259277  -30232.22265    233.124893
    7428           0      1908.014893  -2436.074707  -30232.22265    234.366562
    7429           0      2187.684570  -2188.382080  -30232.22265    214.495743
    7430           0      2435.466309  -1908.791504  -30232.22265    174.758743
    7431           0      2647.747314  -1601.378906  -30232.22265    171.826401
    7432           0      2821.434082  -1270.626465  -30232.22265    217.174545
    7433           0       186.795670  -3088.703125  -29856.66796    213.921600
    7434           0       557.660706  -3043.681152  -29856.66796    209.759674
    7435           0       920.398315  -2954.292969  -29856.66796    211.649414
    7436           0      1269.718994  -2821.842529  -29856.66796    218.239090
    7437           0      1600.531738  -2648.259277  -29856.66796    224.970917
    7438           0      1908.014648  -2436.074707  -29856.66796    222.182114
    7439           0      2187.684570  -2188.382324  -29856.66796    198.052475
    7440           0      2435.466309  -1908.791748  -29856.66796    160.063431
    7441           0      2647.747314  -1601.378906  -29856.66796    171.500656
    7442           0      2821.434082  -1270.626465  -29856.66796    218.376068
    7443           0       186.795654  -3088.703125  -29481.10937    212.057022
    7444           0       557.660706  -3043.681152  -29481.10937    207.381470
    7445           0       920.398315  -2954.292969  -29481.10937    208.138763
    7446           0      1269.718994  -2821.842529  -29481.10937    212.896164
    7447           0      1600.531738  -2648.259277  -29481.10937    216.762222
    7448           0      1908.014648  -2436.074951  -29481.10937    209.886459
    7449           0      2187.684570  -2188.382324  -29481.10937    181.867386
    7450           0      2435.466309  -1908.791748  -29481.10937    147.543213
    7451           0      2647.747314  -1601.378906  -29481.10937    173.033920
    7452           0      2821.434082  -1270.626465  -29481.10937    218.626450
    7453           0       186.795639  -3088.703125  -29105.55468    210.246658
    7454           0       557.660706  -3043.681152  -29105.55468    205.069870
    7455           0       920.398315  -2954.292969  -29105.55468    204.713257
    7456           0      1269.718872  -2821.842529  -29105.55468    207.589355
    7457           0      1600.531616  -2648.259277  -29105.55468    208.491089
    7458           0      1908.014648  -2436.075195  -29105.55468    197.488724
    7459           0      2187.684570  -2188.382324  -29105.55468    166.120850
    7460           0      2435.466309  -1908.791748  -29105.55468    137.474548
    7461           0      2647.747070  -1601.379028  -29105.55468    175.735596
    7462           0      2821.434082  -1270.626465  -29105.55468    217.921448
    7463           0       186.795639  -3088.703125  -28729.99804    208.492554
    7464           0       557.660645  -3043.681152  -28729.99804    202.834259
    7465           0       920.398193  -2954.292969  -28729.99804    201.359222
    7466           0      1269.718872  -2821.842529  -28729.99804    202.306747
    7467           0      1600.531494  -2648.259277  -28729.99804    200.146698
    7468           0      1908.014648  -2436.075195  -28729.99804    185.034698
    7469           0      2187.684326  -2188.382324  -28729.99804    150.916061
    7470           0      2435.466309  -1908.791748  -28729.99804    129.976196
    7471           0      2647.747070  -1601.379028  -28729.99804    179.215866
    7472           0      2821.434082  -1270.626465  -28729.99804    216.295013
    7473           0       186.795639  -3088.703125  -28354.44335    206.797821
    7474           0       557.660645  -3043.681152  -28354.44335    200.668091
    7475           0       920.398193  -2954.292969  -28354.44335    198.075134
    7476           0      1269.718750  -2821.842529  -28354.44335    197.035080
    7477           0      1600.531494  -2648.259277  -28354.44335    191.733978
    7478           0      1908.014404  -2436.075195  -28354.44335    172.555466
    7479           0      2187.684326  -2188.382324  -28354.44335    136.429260
    7480           0      2435.466309  -1908.791748  -28354.44335    125.126366
    7481           0      2647.747070  -1601.379028  -28354.44335    183.055984
    7482           0      2821.434082  -1270.626465  -28354.44335    213.840851
    7483           0       186.795624  -3088.703125  -27978.88867    205.163849
    7484           0       557.660645  -3043.681152  -27978.88867    198.574142
    7485           0       920.398193  -2954.292969  -27978.88867    194.846664
    7486           0      1269.718750  -2821.842529  -27978.88867    191.766830
    7487           0      1600.531494  -2648.259277  -27978.88867    183.259735
    7488           0      1908.014404  -2436.075195  -27978.88867    160.108261
    7489           0      2187.684326  -2188.382324  -27978.88867    122.827560
    7490           0      2435.466309  -1908.791748  -27978.88867    122.780853
    7491           0      2647.747070  -1601.379028  -27978.88867    187.026688
    7492           0      2821.434082  -1270.626465  -27978.88867    210.656937
    7493           0       186.795609  -3088.703125  -27603.33398    203.593842
    7494           0       557.660583  -3043.681152  -27603.33398    196.544739
    7495           0       920.398071  -2954.292969  -27603.33398    191.667603
    7496           0      1269.718750  -2821.842529  -27603.33398    186.494553
    7497           0      1600.531494  -2648.259277  -27603.33398    174.738480
    7498           0      1908.014404  -2436.075195  -27603.33398    147.733582
    7499           0      2187.684326  -2188.382324  -27603.33398    110.322365
    7500           0      2435.466309  -1908.791748  -27603.33398    122.709244
    7501           0      2647.747070  -1601.379150  -27603.33398    190.918121
    7502           0      2821.434082  -1270.626465  -27603.33398    206.860779
    7503           0       186.795609  -3088.703125  -27227.77734    202.087479
    7504           0       557.660583  -3043.681152  -27227.77734    194.578064
    7505           0       920.398010  -2954.292969  -27227.77734    188.523285
    7506           0      1269.718750  -2821.842529  -27227.77734    181.213608
    7507           0      1600.531372  -2648.259521  -27227.77734    166.186096
    7508           0      1908.014404  -2436.075195  -27227.77734    135.491806
    7509           0      2187.684082  -2188.382324  -27227.77734     99.155052
    7510           0      2435.466309  -1908.791870  -27227.77734    124.526772
    7511           0      2647.747070  -1601.379150  -27227.77734    194.629150
    7512           0      2821.434082  -1270.626465  -27227.77734    202.562393
    7513           0       186.795593  -3088.703125  -26852.22265    200.645187
    7514           0       557.660522  -3043.681152  -26852.22265    192.664322
    7515           0       920.397949  -2954.292969  -26852.22265    185.406235
    7516           0      1269.718506  -2821.842773  -26852.22265    175.923447
    7517           0      1600.531372  -2648.259766  -26852.22265    157.626968
    7518           0      1908.014404  -2436.075195  -26852.22265    123.432404
    7519           0      2187.684082  -2188.382568  -26852.22265     89.609764
    7520           0      2435.466064  -1908.791992  -26852.22265    127.844719
    7521           0      2647.747070  -1601.379150  -26852.22265    198.073502
    7522           0      2821.434082  -1270.626465  -26852.22265    197.872879
    7523           0       186.795578  -3088.703125  -26476.66796    199.264801
    7524           0       557.660522  -3043.681152  -26476.66796    190.796829
    7525           0       920.397949  -2954.292969  -26476.66796    182.305557
    7526           0      1269.718506  -2821.842773  -26476.66796    170.628098
    7527           0      1600.531250  -2648.259766  -26476.66796    149.086746
    7528           0      1908.014404  -2436.075195  -26476.66796    111.617645
    7529           0      2187.684082  -2188.382568  -26476.66796     81.992249
    7530           0      2435.466064  -1908.791992  -26476.66796    132.252914
    7531           0      2647.747070  -1601.379272  -26476.66796    201.224335
    7532           0      2821.434082  -1270.626465  -26476.66796    192.888428
    7533           0       186.795563  -3088.703125  -26101.11132    197.942505
    7534           0       557.660400  -3043.681152  -26101.11132    188.965897
    7535           0       920.397949  -2954.292969  -26101.11132    179.214706
    7536           0      1269.718506  -2821.842773  -26101.11132    165.331360
    7537           0      1600.531128  -2648.259766  -26101.11132    140.591797
    7538           0      1908.014160  -2436.075439  -26101.11132    100.105927
    7539           0      2187.684082  -2188.382568  -26101.11132     76.580940
    7540           0      2435.466064  -1908.791992  -26101.11132    137.415894
    7541           0      2647.747070  -1601.379272  -26101.11132    204.059875
    7542           0      2821.434082  -1270.626465  -26101.11132    187.702408
    7543           0       186.795547  -3088.703125  -25725.55468    196.672379
    7544           0       557.660400  -3043.681396  -25725.55468    187.162659
    7545           0       920.397827  -2954.292969  -25725.55468    176.124222
    7546           0      1269.718384  -2821.842773  -25725.55468    160.042801
    7547           0      1600.531006  -2648.259766  -25725.55468    132.173096
    7548           0      1908.014038  -2436.075684  -25725.55468     88.964882
    7549           0      2187.683838  -2188.382813  -25725.55468     73.554161
    7550           0      2435.465820  -1908.791992  -25725.55468    143.042664
    7551           0      2647.747070  -1601.379272  -25725.55468    206.586792
    7552           0      2821.434082  -1270.626465  -25725.55468    182.391815
    7553           0       186.795547  -3088.703125  -25349.99804    195.446594
    7554           0       557.660400  -3043.681396  -25349.99804    185.375992
    7555           0       920.397827  -2954.292969  -25349.99804    173.032120
    7556           0      1269.718384  -2821.842773  -25349.99804    154.772263
    7557           0      1600.531006  -2648.259766  -25349.99804    123.860550
    7558           0      1908.014038  -2436.075684  -25349.99804     78.271782
    7559           0      2187.683838  -2188.382813  -25349.99804     72.887329
    7560           0      2435.465820  -1908.791992  -25349.99804    148.917328
    7561           0      2647.747070  -1601.379395  -25349.99804    208.814407
    7562           0      2821.434082  -1270.626465  -25349.99804    177.026260
    7563           0       186.795532  -3088.703125  -24974.44335    194.255585
    7564           0       557.660400  -3043.681396  -24974.44335    183.596451
    7565           0       920.397827  -2954.292969  -24974.44335    169.931702
    7566           0      1269.718384  -2821.842773  -24974.44335    149.530838
    7567           0      1600.531006  -2648.259766  -24974.44335    115.685966
    7568           0      1908.014038  -2436.075684  -24974.44335     68.122620
    7569           0      2187.683838  -2188.382813  -24974.44335     74.346062
    7570           0      2435.465820  -1908.791992  -24974.44335    154.868530
    7571           0      2647.747070  -1601.379395  -24974.44335    210.763779
    7572           0      2821.434082  -1270.626465  -24974.44335    171.664001
    7573           0       186.795517  -3088.703125  -24598.88867    193.087814
    7574           0       557.660339  -3043.681396  -24598.88867    181.813980
    7575           0       920.397705  -2954.292969  -24598.88867    166.822540
    7576           0      1269.718262  -2821.842773  -24598.88867    144.331741
    7577           0      1600.531006  -2648.259766  -24598.88867    107.683815
    7578           0      1908.014038  -2436.075684  -24598.88867     58.646648
    7579           0      2187.683838  -2188.382813  -24598.88867     77.527580
    7580           0      2435.465820  -1908.791992  -24598.88867    160.776138
    7581           0      2647.747070  -1601.379395  -24598.88867    212.455612
    7582           0      2821.434082  -1270.626465  -24598.88867    166.354843
    7583           0       186.795502  -3088.703125  -24223.33398    191.930130
    7584           0       557.660339  -3043.681396  -24223.33398    180.020035
    7585           0       920.397705  -2954.292969  -24223.33398    163.703888
    7586           0      1269.718262  -2821.842773  -24223.33398    139.190994
    7587           0      1600.531006  -2648.259766  -24223.33398     99.889366
    7588           0      1908.013916  -2436.075684  -24223.33398     50.025230
    7589           0      2187.683838  -2188.382813  -24223.33398     81.982986
    7590           0      2435.465820  -1908.791992  -24223.33398    166.549606
    7591           0      2647.747070  -1601.379395  -24223.33398    213.914536
    7592           0      2821.434082  -1270.626465  -24223.33398    161.140182
    7593           0       186.795486  -3088.703125  -23847.77734    190.769119
    7594           0       557.660278  -3043.681396  -23847.77734    178.205032
    7595           0       920.397705  -2954.292969  -23847.77734    160.574951
    7596           0      1269.718140  -2821.842773  -23847.77734    134.121811
    7597           0      1600.530884  -2648.259766  -23847.77734     92.339088
    7598           0      1908.013794  -2436.075684  -23847.77734     42.531479
    7599           0      2187.683594  -2188.382813  -23847.77734     87.292793
    7600           0      2435.465820  -1908.792236  -23847.77734    172.128082
    7601           0      2647.747070  -1601.379395  -23847.77734    215.163727
    7602           0      2821.434082  -1270.626465  -23847.77734    156.053833
    7603           0       186.795486  -3088.703125  -23472.22265    189.589508
    7604           0       557.660278  -3043.681396  -23472.22265    176.359863
    7605           0       920.397583  -2954.292969  -23472.22265    157.438080
    7606           0      1269.718018  -2821.842773  -23472.22265    129.142334
    7607           0      1600.530762  -2648.260010  -23472.22265     85.071114
    7608           0      1908.013672  -2436.075684  -23472.22265     36.553406
    7609           0      2187.683594  -2188.382813  -23472.22265     93.119362
    7610           0      2435.465820  -1908.792236  -23472.22265    177.466812
    7611           0      2647.747070  -1601.379395  -23472.22265    216.226883
    7612           0      2821.434082  -1270.626465  -23472.22265    151.123779
    7613           0       186.795486  -3088.703125  -23096.66601    188.376129
    7614           0       557.660278  -3043.681396  -23096.66601    174.476456
    7615           0       920.397583  -2954.292969  -23096.66601    154.295547
    7616           0      1269.718018  -2821.842773  -23096.66601    124.267815
    7617           0      1600.530762  -2648.260010  -23096.66601     78.128845
    7618           0      1908.013672  -2436.075684  -23096.66601     32.584335
    7619           0      2187.683594  -2188.382813  -23096.66601     99.200607
    7620           0      2435.465820  -1908.792236  -23096.66601    182.540115
    7621           0      2647.747070  -1601.379395  -23096.66601    217.125427
    7622           0      2821.434082  -1270.626465  -23096.66601    146.370819
    7623           0       186.795471  -3088.703125  -22721.11132    187.113312
    7624           0       557.660217  -3043.681396  -22721.11132    172.547043
    7625           0       920.397583  -2954.292969  -22721.11132    151.150940
    7626           0      1269.717896  -2821.842773  -22721.11132    119.516930
    7627           0      1600.530640  -2648.260010  -22721.11132     71.557404
    7628           0      1908.013672  -2436.075684  -22721.11132     31.028252
    7629           0      2187.683594  -2188.382813  -22721.11132    105.347649
    7630           0      2435.465820  -1908.792358  -22721.11132    187.326965
    7631           0      2647.747070  -1601.379395  -22721.11132    217.878922
    7632           0      2821.434082  -1270.626465  -22721.11132    141.814529
    7633           0       186.795456  -3088.703125  -22345.55468    185.785126
    7634           0       557.660156  -3043.681396  -22345.55468    170.564026
    7635           0       920.397400  -2954.292969  -22345.55468    148.007889
    7636           0      1269.717896  -2821.842773  -22345.55468    114.906189
    7637           0      1600.530518  -2648.260010  -22345.55468     65.407578
    7638           0      1908.013550  -2436.075684  -22345.55468     31.891592
    7639           0      2187.683594  -2188.383057  -22345.55468    111.422447
    7640           0      2435.465820  -1908.792358  -22345.55468    191.817307
    7641           0      2647.747070  -1601.379517  -22345.55468    218.504700
    7642           0      2821.434082  -1270.626465  -22345.55468    137.467850
    7643           0       186.795441  -3088.703125  -21970.00000    184.375809
    7644           0       557.660156  -3043.681396  -21970.00000    168.520157
    7645           0       920.397400  -2954.292969  -21970.00000    144.870605
    7646           0      1269.717773  -2821.842773  -21970.00000    110.452538
    7647           0      1600.530518  -2648.260010  -21970.00000     59.738060
    7648           0      1908.013550  -2436.075684  -21970.00000     34.675125
    7649           0      2187.683594  -2188.383057  -21970.00000    117.327599
    7650           0      2435.465576  -1908.792480  -21970.00000    196.006424
    7651           0      2647.747070  -1601.379517  -21970.00000    219.022141
    7652           0      2821.434082  -1270.626465  -21970.00000    133.340332
    7653           0       186.795425  -3088.703125  -21594.44335    182.870255
    7654           0       557.660156  -3043.681396  -21594.44335    166.408676
    7655           0       920.397400  -2954.293213  -21594.44335    141.743683
    7656           0      1269.717773  -2821.843018  -21594.44335    106.172485
    7657           0      1600.530396  -2648.260254  -21594.44335     54.608803
    7658           0      1908.013428  -2436.076172  -21594.44335     38.697243
    7659           0      2187.683594  -2188.383301  -21594.44335    122.992256
    7660           0      2435.465576  -1908.792480  -21594.44335    199.892105
    7661           0      2647.747070  -1601.379639  -21594.44335    219.444519
    7662           0      2821.434082  -1270.626587  -21594.44335    129.440674
    7663           0       186.795425  -3088.703125  -21218.88867    181.253387
    7664           0       557.660034  -3043.681396  -21218.88867    164.222626
    7665           0       920.397400  -2954.293213  -21218.88867    138.631409
    7666           0      1269.717773  -2821.843018  -21218.88867    102.082413
    7667           0      1600.530396  -2648.260254  -21218.88867     50.088535
    7668           0      1908.013428  -2436.076172  -21218.88867     43.381817
    7669           0      2187.683594  -2188.383301  -21218.88867    128.371124
    7670           0      2435.465576  -1908.792480  -21218.88867    203.475372
    7671           0      2647.746826  -1601.379639  -21218.88867    219.784058
    7672           0      2821.434082  -1270.626709  -21218.88867    125.775009
    7673           0       186.795410  -3088.703125  -20843.33203    179.510559
    7674           0       557.660034  -3043.681396  -20843.33203    161.956467
    7675           0       920.397339  -2954.293213  -20843.33203    135.538437
    7676           0      1269.717773  -2821.843018  -20843.33203     98.195541
    7677           0      1600.530396  -2648.260254  -20843.33203     46.245316
    7678           0      1908.013428  -2436.076172  -20843.33203     48.337154
    7679           0      2187.683594  -2188.383301  -20843.33203    133.426147
    7680           0      2435.465576  -1908.792480  -20843.33203    206.758545
    7681           0      2647.746826  -1601.379639  -20843.33203    220.052551
    7682           0      2821.434082  -1270.626709  -20843.33203    122.347404
    7683           0       186.795395  -3088.703125  -20467.77734    177.628479
    7684           0       557.660034  -3043.681396  -20467.77734    159.603653
    7685           0       920.397217  -2954.293213  -20467.77734    132.469193
    7686           0      1269.717651  -2821.843018  -20467.77734     94.525421
    7687           0      1600.530273  -2648.260254  -20467.77734     43.139721
    7688           0      1908.013306  -2436.076172  -20467.77734     53.318100
    7689           0      2187.683350  -2188.383301  -20467.77734    138.133545
    7690           0      2435.465576  -1908.792480  -20467.77734    209.745041
    7691           0      2647.746826  -1601.379639  -20467.77734    220.259460
    7692           0      2821.434082  -1270.626709  -20467.77734    119.161255
    7693           0       186.795380  -3088.703125  -20092.22265    175.593781
    7694           0       557.659973  -3043.681396  -20092.22265    157.158401
    7695           0       920.397217  -2954.293213  -20092.22265    129.427704
    7696           0      1269.717529  -2821.843018  -20092.22265     91.084442
    7697           0      1600.530273  -2648.260254  -20092.22265     40.809418
    7698           0      1908.013062  -2436.076172  -20092.22265     58.171093
    7699           0      2187.683350  -2188.383301  -20092.22265    142.477158
    7700           0      2435.465576  -1908.792725  -20092.22265    212.440460
    7701           0      2647.746826  -1601.379761  -20092.22265    220.412506
    7702           0      2821.434082  -1270.626709  -20092.22265    116.219582
    7703           0       186.795364  -3088.703125  -19716.66796    173.394409
    7704           0       557.659973  -3043.681396  -19716.66796    154.615875
    7705           0       920.397217  -2954.293213  -19716.66796    126.417290
    7706           0      1269.717529  -2821.843018  -19716.66796     87.880211
    7707           0      1600.530151  -2648.260254  -19716.66796     39.263195
    7708           0      1908.013062  -2436.076172  -19716.66796     62.797543
    7709           0      2187.683105  -2188.383301  -19716.66796    146.443878
    7710           0      2435.465576  -1908.792725  -19716.66796    214.848022
    7711           0      2647.746826  -1601.379761  -19716.66796    220.519180
    7712           0      2821.434082  -1270.626709  -19716.66796    113.523972
    7713           0       186.795364  -3088.703125  -19341.11132    171.019699
    7714           0       557.659973  -3043.681396  -19341.11132    151.970657
    7715           0       920.397095  -2954.293213  -19341.11132    123.441322
    7716           0      1269.717529  -2821.843018  -19341.11132     84.920288
    7717           0      1600.530029  -2648.260254  -19341.11132     38.464470
    7718           0      1908.013062  -2436.076172  -19341.11132     67.137367
    7719           0      2187.683105  -2188.383301  -19341.11132    150.024902
    7720           0      2435.465332  -1908.792725  -19341.11132    216.971146
    7721           0      2647.746826  -1601.379761  -19341.11132    220.585297
    7722           0      2821.434082  -1270.626709  -19341.11132    111.077599
    7723           0       186.795349  -3088.703125  -18965.55468    168.459213
    7724           0       557.659912  -3043.681396  -18965.55468    149.218597
    7725           0       920.397095  -2954.293213  -18965.55468    120.501541
    7726           0      1269.717407  -2821.843018  -18965.55468     82.207939
    7727           0      1600.530029  -2648.260254  -18965.55468     38.332634
    7728           0      1908.012939  -2436.076416  -18965.55468     71.147224
    7729           0      2187.683105  -2188.383545  -18965.55468    153.214722
    7730           0      2435.465332  -1908.792725  -18965.55468    218.813538
    7731           0      2647.746826  -1601.379761  -18965.55468    220.615387
    7732           0      2821.434082  -1270.626709  -18965.55468    108.882347
    7733           0       186.795334  -3088.703125  -18589.99804    165.704086
    7734           0       557.659912  -3043.681396  -18589.99804    146.354919
    7735           0       920.397034  -2954.293213  -18589.99804    117.600273
    7736           0      1269.717285  -2821.843262  -18589.99804     79.743767
    7737           0      1600.530029  -2648.260498  -18589.99804     38.754284
    7738           0      1908.012939  -2436.076416  -18589.99804     74.800774
    7739           0      2187.683105  -2188.383545  -18589.99804    156.008896
    7740           0      2435.465332  -1908.792725  -18589.99804    220.378494
    7741           0      2647.746826  -1601.379883  -18589.99804    220.612991
    7742           0      2821.434082  -1270.626709  -18589.99804    106.941002
    7743           0       186.795334  -3088.703125  -18214.44531    162.746689
    7744           0       557.659912  -3043.681396  -18214.44531    143.375443
    7745           0       920.396973  -2954.293213  -18214.44531    114.737198
    7746           0      1269.717285  -2821.843262  -18214.44531     77.523979
    7747           0      1600.530029  -2648.260498  -18214.44531     39.599983
    7748           0      1908.012939  -2436.076416  -18214.44531     78.077446
    7749           0      2187.683105  -2188.383545  -18214.44531    158.404587
    7750           0      2435.465332  -1908.792725  -18214.44531    221.668015
    7751           0      2647.746582  -1601.379883  -18214.44531    220.580856
    7752           0      2821.434082  -1270.626709  -18214.44531    105.256668
    7753           0       186.795334  -3088.703125  -17838.88867    159.580505
    7754           0       557.659851  -3043.681396  -17838.88867    140.276886
    7755           0       920.396973  -2954.293213  -17838.88867    111.912262
    7756           0      1269.717285  -2821.843262  -17838.88867     75.542114
    7757           0      1600.529907  -2648.260498  -17838.88867     40.743465
    7758           0      1908.012695  -2436.076416  -17838.88867     80.964317
    7759           0      2187.682861  -2188.383789  -17838.88867    160.399124
    7760           0      2435.465332  -1908.792847  -17838.88867    222.683990
    7761           0      2647.746582  -1601.379883  -17838.88867    220.520645
    7762           0      2821.434082  -1270.626709  -17838.88867    103.832947
    7763           0       186.795319  -3088.703125  -17463.33203    156.200302
    7764           0       557.659790  -3043.681396  -17463.33203    137.056534
    7765           0       920.396851  -2954.293213  -17463.33203    109.124847
    7766           0      1269.717285  -2821.843262  -17463.33203     73.787445
    7767           0      1600.529785  -2648.260498  -17463.33203     42.070503
    7768           0      1908.012695  -2436.076416  -17463.33203     83.452034
    7769           0      2187.682861  -2188.383789  -17463.33203    161.990051
    7770           0      2435.465332  -1908.792847  -17463.33203    223.426819
    7771           0      2647.746582  -1601.379883  -17463.33203    220.433380
    7772           0      2821.434082  -1270.626709  -17463.33203    102.674095
    7773           0       186.795303  -3088.703125  -17087.77734    152.602814
    7774           0       557.659729  -3043.681396  -17087.77734    133.711502
    7775           0       920.396790  -2954.293213  -17087.77734    106.371422
    7776           0      1269.717163  -2821.843262  -17087.77734     72.245766
    7777           0      1600.529785  -2648.260498  -17087.77734     43.484440
    7778           0      1908.012695  -2436.076416  -17087.77734     85.534203
    7779           0      2187.682861  -2188.383789  -17087.77734    163.175537
    7780           0      2435.465332  -1908.792847  -17087.77734    223.896652
    7781           0      2647.746582  -1601.379883  -17087.77734    220.319046
    7782           0      2821.434082  -1270.626709  -17087.77734    101.784653
    7783           0       186.795288  -3088.703125  -16712.22265    148.785568
    7784           0       557.659729  -3043.681396  -16712.22265    130.239273
    7785           0       920.396790  -2954.293457  -16712.22265    103.649063
    7786           0      1269.717041  -2821.843262  -16712.22265     70.900665
    7787           0      1600.529663  -2648.260498  -16712.22265     44.908478
    7788           0      1908.012695  -2436.076660  -16712.22265     87.206718
    7789           0      2187.682617  -2188.383789  -16712.22265    163.951920
    7790           0      2435.465332  -1908.792969  -16712.22265    224.091995
    7791           0      2647.746582  -1601.379883  -16712.22265    220.177155
    7792           0      2821.434082  -1270.626709  -16712.22265    101.169998
    7793           0       186.795273  -3088.703125  -16336.66601    144.747467
    7794           0       557.659668  -3043.681641  -16336.66601    126.638947
    7795           0       920.396790  -2954.293457  -16336.66601    100.952492
    7796           0      1269.717041  -2821.843262  -16336.66601     69.732338
    7797           0      1600.529541  -2648.260742  -16336.66601     46.283932
    7798           0      1908.012573  -2436.076660  -16336.66601     88.465729
    7799           0      2187.682617  -2188.383789  -16336.66601    164.318863
    7800           0      2435.465332  -1908.792969  -16336.66601    224.011703
    7801           0      2647.746582  -1601.380005  -16336.66601    220.005569
    7802           0      2821.434082  -1270.626709  -16336.66601    100.835304
    7803           0       186.795273  -3088.703125  -15961.11035    140.490570
    7804           0       557.659668  -3043.681641  -15961.11035    122.909271
    7805           0       920.396790  -2954.293457  -15961.11035     98.278145
    7806           0      1269.717041  -2821.843262  -15961.11035     68.716301
    7807           0      1600.529541  -2648.260742  -15961.11035     47.565350
    7808           0      1908.012451  -2436.076660  -15961.11035     89.312386
    7809           0      2187.682617  -2188.383789  -15961.11035    164.271759
    7810           0      2435.465332  -1908.792969  -15961.11035    223.648361
    7811           0      2647.746582  -1601.380005  -15961.11035    219.803375
    7812           0      2821.434082  -1270.626709  -15961.11035    100.786491
    7813           0       186.795258  -3088.703125  -15585.55468    136.016769
    7814           0       557.659668  -3043.681641  -15585.55468    119.049934
    7815           0       920.396729  -2954.293457  -15585.55468     95.618462
    7816           0      1269.717041  -2821.843262  -15585.55468     67.830498
    7817           0      1600.529541  -2648.260742  -15585.55468     48.720100
    7818           0      1908.012451  -2436.076660  -15585.55468     89.739029
    7819           0      2187.682617  -2188.384033  -15585.55468    163.808762
    7820           0      2435.465088  -1908.792969  -15585.55468    223.003510
    7821           0      2647.746582  -1601.380005  -15585.55468    219.567505
    7822           0      2821.434082  -1270.626709  -15585.55468    101.029037
    7823           0       186.795242  -3088.703125  -15209.99902    131.329330
    7824           0       557.659607  -3043.681641  -15209.99902    115.062248
    7825           0       920.396606  -2954.293457  -15209.99902     92.965271
    7826           0      1269.716919  -2821.843262  -15209.99902     67.051064
    7827           0      1600.529541  -2648.260742  -15209.99902     49.723583
    7828           0      1908.012451  -2436.076660  -15209.99902     89.760887
    7829           0      2187.682617  -2188.384033  -15209.99902    162.918930
    7830           0      2435.465088  -1908.793213  -15209.99902    222.068619
    7831           0      2647.746582  -1601.380005  -15209.99902    219.291641
    7832           0      2821.434082  -1270.626709  -15209.99902    101.567665
    7833           0       186.795227  -3088.703125  -14834.44335    126.435944
    7834           0       557.659607  -3043.681641  -14834.44335    110.944038
    7835           0       920.396606  -2954.293457  -14834.44335     90.313988
    7836           0      1269.716797  -2821.843750  -14834.44335     66.349052
    7837           0      1600.529541  -2648.260742  -14834.44335     50.563103
    7838           0      1908.012451  -2436.076660  -14834.44335     89.358444
    7839           0      2187.682617  -2188.384033  -14834.44335    161.609390
    7840           0      2435.464844  -1908.793213  -14834.44335    220.845963
    7841           0      2647.746582  -1601.380127  -14834.44335    218.969193
    7842           0      2821.434082  -1270.626709  -14834.44335    102.405647
    7843           0       186.795212  -3088.703125  -14458.88867    121.341507
    7844           0       557.659546  -3043.681641  -14458.88867    106.701286
    7845           0       920.396606  -2954.293457  -14458.88867     87.647469
    7846           0      1269.716797  -2821.843750  -14458.88867     65.710625
    7847           0      1600.529419  -2648.260742  -14458.88867     51.223007
    7848           0      1908.012329  -2436.076660  -14458.88867     88.551025
    7849           0      2187.682617  -2188.384033  -14458.88867    159.856842
    7850           0      2435.464844  -1908.793213  -14458.88867    219.300385
    7851           0      2647.746582  -1601.380127  -14458.88867    218.599869
    7852           0      2821.434082  -1270.626709  -14458.88867    103.555710
    7853           0       186.795212  -3088.703125  -14083.33300    116.056694
    7854           0       557.659546  -3043.681641  -14083.33300    102.333130
    7855           0       920.396545  -2954.293457  -14083.33300     84.964516
    7856           0      1269.716797  -2821.843750  -14083.33300     65.095604
    7857           0      1600.529297  -2648.260742  -14083.33300     51.711109
    7858           0      1908.012207  -2436.076904  -14083.33300     87.349426
    7859           0      2187.682617  -2188.384033  -14083.33300    157.675232
    7860           0      2435.464844  -1908.793213  -14083.33300    217.449722
    7861           0      2647.746582  -1601.380127  -14083.33300    218.187637
    7862           0      2821.434082  -1270.626709  -14083.33300    105.007706
    7863           0       186.795197  -3088.703125  -13707.77734    110.591927
    7864           0       557.659546  -3043.681641  -13707.77734     97.842842
    7865           0       920.396484  -2954.293457  -13707.77734     82.253723
    7866           0      1269.716675  -2821.843750  -13707.77734     64.482620
    7867           0      1600.529297  -2648.260742  -13707.77734     52.028534
    7868           0      1908.012085  -2436.076904  -13707.77734     85.739235
    7869           0      2187.682373  -2188.384277  -13707.77734    155.047424
    7870           0      2435.464844  -1908.793213  -13707.77734    215.278122
    7871           0      2647.746582  -1601.380127  -13707.77734    217.713501
    7872           0      2821.434082  -1270.626709  -13707.77734    106.768257
    7873           0       186.795181  -3088.703125  -13332.22168    104.957787
    7874           0       557.659424  -3043.681641  -13332.22168     93.237770
    7875           0       920.396484  -2954.293457  -13332.22168     79.497520
    7876           0      1269.716675  -2821.843750  -13332.22168     63.863503
    7877           0      1600.529175  -2648.260742  -13332.22168     52.161816
    7878           0      1908.012085  -2436.077148  -13332.22168     83.728592
    7879           0      2187.682373  -2188.384277  -13332.22168    151.961578
    7880           0      2435.464844  -1908.793335  -13332.22168    212.760071
    7881           0      2647.746582  -1601.380249  -13332.22168    217.151016
    7882           0      2821.434082  -1270.626709  -13332.22168    108.847946
    7883           0       186.795181  -3088.703125  -12956.66796     99.168839
    7884           0       557.659424  -3043.681641  -12956.66796     88.518066
    7885           0       920.396362  -2954.293457  -12956.66796     76.696838
    7886           0      1269.716553  -2821.843750  -12956.66796     63.197762
    7887           0      1600.529053  -2648.260742  -12956.66796     52.130116
    7888           0      1908.012085  -2436.077148  -12956.66796     81.324600
    7889           0      2187.682373  -2188.384277  -12956.66796    148.437424
    7890           0      2435.464844  -1908.793457  -12956.66796    209.914001
    7891           0      2647.746582  -1601.380249  -12956.66796    216.503357
    7892           0      2821.434082  -1270.626709  -12956.66796    111.232292
    7893           0       186.795166  -3088.703125  -12581.11328     93.239616
    7894           0       557.659424  -3043.681641  -12581.11328     83.694359
    7895           0       920.396362  -2954.293457  -12581.11328     73.836143
    7896           0      1269.716553  -2821.843750  -12581.11328     62.474281
    7897           0      1600.529053  -2648.260742  -12581.11328     51.944832
    7898           0      1908.011963  -2436.077148  -12581.11328     78.549522
    7899           0      2187.682129  -2188.384521  -12581.11328    144.438248
    7900           0      2435.464844  -1908.793457  -12581.11328    206.699600
    7901           0      2647.746582  -1601.380249  -12581.11328    215.760406
    7902           0      2821.434082  -1270.626709  -12581.11328    113.922638
    7903           0       186.795151  -3088.703125  -12205.55566     87.186516
    7904           0       557.659363  -3043.681641  -12205.55566     78.771759
    7905           0       920.396301  -2954.293457  -12205.55566     70.908363
    7906           0      1269.716431  -2821.843750  -12205.55566     61.674965
    7907           0      1600.529053  -2648.260986  -12205.55566     51.613289
    7908           0      1908.011963  -2436.077148  -12205.55566     75.398972
    7909           0      2187.682129  -2188.384521  -12205.55566    139.973251
    7910           0      2435.464844  -1908.793457  -12205.55566    203.111649
    7911           0      2647.746582  -1601.380249  -12205.55566    214.905975
    7912           0      2821.434082  -1270.626709  -12205.55566    116.913872
    7913           0       186.795151  -3088.703125  -11830.00000     81.026871
    7914           0       557.659363  -3043.681641  -11830.00000     73.758652
    7915           0       920.396179  -2954.293457  -11830.00000     67.908012
    7916           0      1269.716431  -2821.843750  -11830.00000     60.780796
    7917           0      1600.528931  -2648.261230  -11830.00000     51.152542
    7918           0      1908.011719  -2436.077148  -11830.00000     71.899345
    7919           0      2187.682129  -2188.384521  -11830.00000    135.028885
    7920           0      2435.464844  -1908.793457  -11830.00000    199.131439
    7921           0      2647.746582  -1601.380371  -11830.00000    213.927124
    7922           0      2821.433838  -1270.626831  -11830.00000    120.196388
    7923           0       186.795135  -3088.703125  -11454.44335     74.777878
    7924           0       557.659302  -3043.681641  -11454.44335     68.666344
    7925           0       920.396179  -2954.293457  -11454.44335     64.828445
    7926           0      1269.716309  -2821.843750  -11454.44335     59.780445
    7927           0      1600.528931  -2648.261230  -11454.44335     50.576805
    7928           0      1908.011719  -2436.077148  -11454.44335     68.058105
    7929           0      2187.682129  -2188.384521  -11454.44335    129.600082
    7930           0      2435.464844  -1908.793457  -11454.44335    194.741806
    7931           0      2647.746582  -1601.380371  -11454.44335    212.801117
    7932           0      2821.433838  -1270.626831  -11454.44335    123.760147
    7933           0       186.795120  -3088.703125  -11078.88867     68.460327
    7934           0       557.659302  -3043.681641  -11078.88867     63.505444
    7935           0       920.396179  -2954.293457  -11078.88867     61.669239
    7936           0      1269.716309  -2821.843750  -11078.88867     58.659397
    7937           0      1600.528809  -2648.261230  -11078.88867     49.902214
    7938           0      1908.011719  -2436.077148  -11078.88867     63.902977
    7939           0      2187.682129  -2188.384521  -11078.88867    123.681770
    7940           0      2435.464844  -1908.793701  -11078.88867    189.925827
    7941           0      2647.746338  -1601.380371  -11078.88867    211.507767
    7942           0      2821.433838  -1270.626831  -11078.88867    127.591232
    7943           0       186.795105  -3088.703125  -10703.33300     62.093899
    7944           0       557.659241  -3043.681641  -10703.33300     58.291885
    7945           0       920.396179  -2954.293457  -10703.33300     58.430065
    7946           0      1269.716309  -2821.843750  -10703.33300     57.409115
    7947           0      1600.528809  -2648.261230  -10703.33300     49.148769
    7948           0      1908.011719  -2436.077148  -10703.33300     59.458500
    7949           0      2187.682129  -2188.384521  -10703.33300    117.268990
    7950           0      2435.464600  -1908.793701  -10703.33300    184.665253
    7951           0      2647.746338  -1601.380371  -10703.33300    210.022766
    7952           0      2821.433838  -1270.626831  -10703.33300    131.671341
    7953           0       186.795090  -3088.703125  -10327.77734     55.700710
    7954           0       557.659241  -3043.681641  -10327.77734     53.042828
    7955           0       920.396118  -2954.293457  -10327.77734     55.116058
    7956           0      1269.716187  -2821.843750  -10327.77734     56.022118
    7957           0      1600.528687  -2648.261230  -10327.77734     48.333549
    7958           0      1908.011719  -2436.077393  -10327.77734     54.764767
    7959           0      2187.681885  -2188.384766  -10327.77734    110.358932
    7960           0      2435.464600  -1908.793701  -10327.77734    178.940781
    7961           0      2647.746338  -1601.380371  -10327.77734    208.319748
    7962           0      2821.433838  -1270.626831  -10327.77734    135.978485
    7963           0       186.795090  -3088.703125  -9952.220703     49.305721
    7964           0       557.659180  -3043.681641  -9952.220703     47.780663
    7965           0       920.395996  -2954.293457  -9952.220703     51.736443
    7966           0      1269.716064  -2821.843750  -9952.220703     54.494305
    7967           0      1600.528564  -2648.261230  -9952.220703     47.480068
    7968           0      1908.011719  -2436.077393  -9952.220703     49.869499
    7969           0      2187.681885  -2188.384766  -9952.220703    102.949730
    7970           0      2435.464600  -1908.793701  -9952.220703    172.735199
    7971           0      2647.746338  -1601.380371  -9952.220703    206.368378
    7972           0      2821.433838  -1270.626831  -9952.220703    140.485352
    7973           0       186.795074  -3088.703125  -9576.666016     42.934860
    7974           0       557.659180  -3043.681641  -9576.666016     42.534901
    7975           0       920.395996  -2954.293457  -9576.666016     48.305553
    7976           0      1269.716064  -2821.843750  -9576.666016     52.823853
    7977           0      1600.528564  -2648.261230  -9576.666016     46.608032
    7978           0      1908.011475  -2436.077637  -9576.666016     44.845772
    7979           0      2187.681641  -2188.384766  -9576.666016     95.044922
    7980           0      2435.464600  -1908.793701  -9576.666016    166.027908
    7981           0      2647.746338  -1601.380615  -9576.666016    204.136581
    7982           0      2821.433838  -1270.626831  -9576.666016    145.159653
    7983           0       186.795059  -3088.703125  -9201.111328     36.623367
    7984           0       557.659119  -3043.681641  -9201.111328     37.343422
    7985           0       920.395996  -2954.293457  -9201.111328     44.847080
    7986           0      1269.716064  -2821.843750  -9201.111328     51.011677
    7987           0      1600.528564  -2648.261230  -9201.111328     45.741833
    7988           0      1908.011475  -2436.077637  -9201.111328     39.787834
    7989           0      2187.681641  -2188.384766  -9201.111328     86.640671
    7990           0      2435.464600  -1908.793823  -9201.111328    158.806778
    7991           0      2647.746338  -1601.380615  -9201.111328    201.587036
    7992           0      2821.433838  -1270.626831  -9201.111328    149.961258
    7993           0       186.795059  -3088.703125  -8825.555664     30.419548
    7994           0       557.659119  -3043.681641  -8825.555664     32.263592
    7995           0       920.395935  -2954.293457  -8825.555664     41.388271
    7996           0      1269.715820  -2821.843750  -8825.555664     49.069626
    7997           0      1600.528442  -2648.261230  -8825.555664     44.895771
    7998           0      1908.011475  -2436.077637  -8825.555664     34.867439
    7999           0      2187.681641  -2188.384766  -8825.555664     77.759399
    8000           0      2435.464600  -1908.793823  -8825.555664    151.067062
    8001           0      2647.746338  -1601.380615  -8825.555664    198.676315
    8002           0      2821.433838  -1270.626831  -8825.555664    154.846329
    8003           0       186.795059  -3088.703125  -8450.000977     24.403801
    8004           0       557.659119  -3043.681641  -8450.000977     27.384232
    8005           0       920.395874  -2954.293457  -8450.000977     37.967789
    8006           0      1269.715820  -2821.843750  -8450.000977     47.007889
    8007           0      1600.528442  -2648.261230  -8450.000977     44.094551
    8008           0      1908.011475  -2436.077637  -8450.000977     30.311298
    8009           0      2187.681641  -2188.384766  -8450.000977     68.409210
    8010           0      2435.464600  -1908.793823  -8450.000977    142.796463
    8011           0      2647.746338  -1601.380615  -8450.000977    195.366074
    8012           0      2821.433838  -1270.626831  -8450.000977    159.756882
    8013           0       186.795044  -3088.703125  -8074.445313     18.735428
    8014           0       557.659058  -3043.681641  -8074.445313     22.849314
    8015           0       920.395874  -2954.293457  -8074.445313     34.641323
    8016           0      1269.715820  -2821.843750  -8074.445313     44.834843
    8017           0      1600.528442  -2648.261230  -8074.445313     43.372147
    8018           0      1908.011475  -2436.077637  -8074.445313     26.513302
    8019           0      2187.681641  -2188.384766  -8074.445313     58.618210
    8020           0      2435.464355  -1908.793945  -8074.445313    133.995331
    8021           0      2647.746094  -1601.380615  -8074.445313    191.613266
    8022           0      2821.433838  -1270.626831  -8074.445313    164.628265
    8023           0       186.795029  -3088.703125  -7698.889160     13.801563
    8024           0       557.659058  -3043.681641  -7698.889160     18.914465
    8025           0       920.395752  -2954.293945  -7698.889160     31.473415
    8026           0      1269.715820  -2821.843994  -7698.889160     42.573238
    8027           0      1600.528320  -2648.261230  -7698.889160     42.746822
    8028           0      1908.011230  -2436.077637  -7698.889160     24.031076
    8029           0      2187.681641  -2188.385254  -7698.889160     48.444839
    8030           0      2435.464355  -1908.793945  -7698.889160    124.692230
    8031           0      2647.746094  -1601.380615  -7698.889160    187.368134
    8032           0      2821.433838  -1270.626831  -7698.889160    169.385696
    8033           0       186.795013  -3088.703125  -7323.333496     10.590655
    8034           0       557.658997  -3043.681641  -7323.333496     16.016521
    8035           0       920.395752  -2954.293945  -7323.333496     28.547251
    8036           0      1269.715698  -2821.843994  -7323.333496     40.249687
    8037           0      1600.528076  -2648.261475  -7323.333496     42.241219
    8038           0      1908.011108  -2436.077881  -7323.333496     23.438545
    8039           0      2187.681641  -2188.385254  -7323.333496     37.973598
    8040           0      2435.464355  -1908.793945  -7323.333496    114.933334
    8041           0      2647.746094  -1601.380615  -7323.333496    182.587418
    8042           0      2821.433838  -1270.626831  -7323.333496    173.940460
    8043           0       186.794998  -3088.703125  -6947.777832     10.676699
    8044           0       557.658997  -3043.681641  -6947.777832     14.741866
    8045           0       920.395691  -2954.293945  -6947.777832     25.971369
    8046           0      1269.715576  -2821.843994  -6947.777832     37.888428
    8047           0      1600.528076  -2648.261475  -6947.777832     41.882156
    8048           0      1908.011108  -2436.077881  -6947.777832     24.990978
    8049           0      2187.681641  -2188.385254  -6947.777832     27.425768
    8050           0      2435.464355  -1908.793945  -6947.777832    104.808121
    8051           0      2647.746094  -1601.380615  -6947.777832    177.228424
    8052           0      2821.433838  -1270.626953  -6947.777832    178.192352
    8053           0       186.794998  -3088.703125  -6572.222656     13.921865
    8054           0       557.658936  -3043.681641  -6572.222656     15.448998
    8055           0       920.395569  -2954.293945  -6572.222656     23.865297
    8056           0      1269.715576  -2821.843994  -6572.222656     35.524971
    8057           0      1600.528076  -2648.261475  -6572.222656     41.690666
    8058           0      1908.011108  -2436.077881  -6572.222656     28.406874
    8059           0      2187.681641  -2188.385254  -6572.222656     17.518856
    8060           0      2435.464355  -1908.794067  -6572.222656     94.468605
    8061           0      2647.746094  -1601.380615  -6572.222656    171.261063
    8062           0      2821.433838  -1270.626953  -6572.222656    182.025620
    8063           0       186.794983  -3088.703125  -6196.666992     18.692341
    8064           0       557.658936  -3043.681641  -6196.666992     17.849020
    8065           0       920.395569  -2954.293945  -6196.666992     22.358080
    8066           0      1269.715576  -2821.844238  -6196.666992     33.189480
    8067           0      1600.528076  -2648.261719  -6196.666992     41.693241
    8068           0      1908.010986  -2436.077881  -6196.666992     33.141724
    8069           0      2187.681396  -2188.385254  -6196.666992     11.547037
    8070           0      2435.464355  -1908.794189  -6196.666992     84.186768
    8071           0      2647.746094  -1601.380615  -6196.666992    164.664825
    8072           0      2821.433838  -1270.626953  -6196.666992    185.312820
    8073           0       186.794968  -3088.703125  -5821.111328     24.054302
    8074           0       557.658936  -3043.681641  -5821.111328     21.327450
    8075           0       920.395569  -2954.293945  -5821.111328     21.547380
    8076           0      1269.715576  -2821.844238  -5821.111328     30.922247
    8077           0      1600.528076  -2648.261719  -5821.111328     41.904465
    8078           0      1908.010986  -2436.077881  -5821.111328     38.719940
    8079           0      2187.681396  -2188.385254  -5821.111328     15.989292
    8080           0      2435.464355  -1908.794189  -5821.111328     74.410980
    8081           0      2647.746094  -1601.380737  -5821.111328    157.455704
    8082           0      2821.433838  -1270.626953  -5821.111328    187.909988
    8083           0       186.794952  -3088.703125  -5445.555664     29.653248
    8084           0       557.658813  -3043.681641  -5445.555664     25.398031
    8085           0       920.395508  -2954.293945  -5445.555664     21.475784
    8086           0      1269.715454  -2821.844238  -5445.555664     28.752045
    8087           0      1600.527954  -2648.261719  -5445.555664     42.346905
    8088           0      1908.010986  -2436.077881  -5445.555664     44.801502
    8089           0      2187.681396  -2188.385254  -5445.555664     26.336760
    8090           0      2435.464355  -1908.794189  -5445.555664     65.912384
    8091           0      2647.746094  -1601.380737  -5445.555664    149.677475
    8092           0      2821.433838  -1270.626953  -5445.555664    189.667389
    8093           0       186.794937  -3088.703125  -5070.000000     35.349438
    8094           0       557.658813  -3043.681641  -5070.000000     29.778837
    8095           0       920.395508  -2954.293945  -5070.000000     22.097235
    8096           0      1269.715332  -2821.844238  -5070.000000     26.716766
    8097           0      1600.527954  -2648.261719  -5070.000000     43.023655
    8098           0      1908.010864  -2436.078125  -5070.000000     51.184071
    8099           0      2187.681396  -2188.385254  -5070.000000     38.224857
    8100           0      2435.464355  -1908.794189  -5070.000000     59.841778
    8101           0      2647.746094  -1601.380737  -5070.000000    141.465485
    8102           0      2821.433838  -1270.626953  -5070.000000    190.419739
    8103           0       186.794937  -3088.703125  -4694.444824     41.078091
    8104           0       557.658813  -3043.681641  -4694.444824     34.317642
    8105           0       920.395386  -2954.293945  -4694.444824     23.305307
    8106           0      1269.715332  -2821.844238  -4694.444824     24.832979
    8107           0      1600.527832  -2648.261719  -4694.444824     43.950214
    8108           0      1908.010742  -2436.078125  -4694.444824     57.719090
    8109           0      2187.681152  -2188.385254  -4694.444824     50.668316
    8110           0      2435.464355  -1908.794189  -4694.444824     57.661175
    8111           0      2647.746094  -1601.380737  -4694.444824    133.024261
    8112           0      2821.433838  -1270.626953  -4694.444824    190.014877
    8113           0       186.794922  -3088.703125  -4318.889160     46.808033
    8114           0       557.658752  -3043.681641  -4318.889160     38.930637
    8115           0       920.395386  -2954.293945  -4318.889160     24.960205
    8116           0      1269.715332  -2821.844238  -4318.889160     23.127602
    8117           0      1600.527832  -2648.261719  -4318.889160     45.115402
    8118           0      1908.010742  -2436.078125  -4318.889160     64.333992
    8119           0      2187.681152  -2188.385254  -4318.889160     63.328125
    8120           0      2435.464111  -1908.794312  -4318.889160     60.386513
    8121           0      2647.746094  -1601.380859  -4318.889160    124.771515
    8122           0      2821.433838  -1270.626953  -4318.889160    188.294006
    8123           0       186.794907  -3088.703125  -3943.333740     52.519825
    8124           0       557.658752  -3043.681641  -3943.333740     43.572102
    8125           0       920.395386  -2954.293945  -3943.333740     26.934349
    8126           0      1269.715210  -2821.844238  -3943.333740     21.594086
    8127           0      1600.527710  -2648.261719  -3943.333740     46.530228
    8128           0      1908.010742  -2436.078125  -3943.333740     70.960396
    8129           0      2187.681152  -2188.385254  -3943.333740     76.088387
    8130           0      2435.464111  -1908.794312  -3943.333740     67.956383
    8131           0      2647.746094  -1601.380859  -3943.333740    117.253632
    8132           0      2821.433838  -1270.626953  -3943.333740    185.154053
    8133           0       186.794907  -3088.703125  -3567.778076     58.204178
    8134           0       557.658752  -3043.681641  -3567.778076     48.211479
    8135           0       920.395325  -2954.293945  -3567.778076     29.122797
    8136           0      1269.715088  -2821.844238  -3567.778076     20.242971
    8137           0      1600.527588  -2648.261719  -3567.778076     48.168877
    8138           0      1908.010498  -2436.078125  -3567.778076     77.582130
    8139           0      2187.681152  -2188.385498  -3567.778076     88.784828
    8140           0      2435.464111  -1908.794434  -3567.778076     79.348358
    8141           0      2647.746094  -1601.380859  -3567.778076    111.433899
    8142           0      2821.433838  -1270.626953  -3567.778076    180.514359
    8143           0       186.794891  -3088.703125  -3192.221436     63.851650
    8144           0       557.658691  -3043.681641  -3192.221436     52.831936
    8145           0       920.395264  -2954.293945  -3192.221436     31.447130
    8146           0      1269.715088  -2821.844238  -3192.221436     19.040697
    8147           0      1600.527588  -2648.261719  -3192.221436     50.049385
    8148           0      1908.010498  -2436.078125  -3192.221436     84.186127
    8149           0      2187.680908  -2188.385742  -3192.221436    101.422127
    8150           0      2435.463867  -1908.794434  -3192.221436     93.382370
    8151           0      2647.746094  -1601.380859  -3192.221436    108.262650
    8152           0      2821.433838  -1270.626953  -3192.221436    174.432602
    8153           0       186.794876  -3088.703125  -2816.665771     69.468956
    8154           0       557.658691  -3043.681641  -2816.665771     57.424877
    8155           0       920.395264  -2954.293945  -2816.665771     33.861618
    8156           0      1269.715088  -2821.844238  -2816.665771     17.983810
    8157           0      1600.527466  -2648.261719  -2816.665771     52.118813
    8158           0      1908.010498  -2436.078125  -2816.665771     90.782967
    8159           0      2187.680908  -2188.385742  -2816.665771    113.844795
    8160           0      2435.463867  -1908.794434  -2816.665771    109.222160
    8161           0      2647.746094  -1601.380859  -2816.665771    109.154602
    8162           0      2821.433838  -1270.626953  -2816.665771    167.069885
    8163           0       186.794876  -3088.703125  -2441.111328     75.012962
    8164           0       557.658630  -3043.681641  -2441.111328     61.953327
    8165           0       920.395142  -2954.293945  -2441.111328     36.292404
    8166           0      1269.714966  -2821.844238  -2441.111328     17.021532
    8167           0      1600.527466  -2648.261963  -2441.111328     54.417156
    8168           0      1908.010498  -2436.078613  -2441.111328     97.419014
    8169           0      2187.680908  -2188.385742  -2441.111328    126.125381
    8170           0      2435.463867  -1908.794678  -2441.111328    125.936424
    8171           0      2647.746094  -1601.380981  -2441.111328    114.340393
    8172           0      2821.433838  -1270.626953  -2441.111328    158.813751
    8173           0       186.794861  -3088.703125  -2065.554932     80.628357
    8174           0       557.658630  -3043.681641  -2065.554932     66.538467
    8175           0       920.395081  -2954.293945  -2065.554932     38.822845
    8176           0      1269.714844  -2821.844238  -2065.554932     16.161407
    8177           0      1600.527466  -2648.261963  -2065.554932     56.828781
    8178           0      1908.010498  -2436.078613  -2065.554932    104.156395
    8179           0      2187.680908  -2188.385742  -2065.554932    138.322845
    8180           0      2435.463867  -1908.794678  -2065.554932    143.726700
    8181           0      2647.746094  -1601.381104  -2065.554932    124.904533
    8182           0      2821.433838  -1270.626953  -2065.554932    150.405518
    8183           0       186.794846  -3088.703125  -1689.998413     85.818123
    8184           0       557.658569  -3043.681641  -1689.998413     70.746979
    8185           0       920.395020  -2954.293945  -1689.998413     41.086391
    8186           0      1269.714844  -2821.844238  -1689.998413     15.356578
    8187           0      1600.527344  -2648.261963  -1689.998413     59.359432
    8188           0      1908.010254  -2436.078613  -1689.998413    110.753746
    8189           0      2187.680908  -2188.385742  -1689.998413    149.895752
    8190           0      2435.463867  -1908.794678  -1689.998413    160.421387
    8191           0      2647.746094  -1601.381104  -1689.998413    137.957047
    8192           0      2821.433838  -1270.626953  -1689.998413    142.426804
    8193           0       186.794830  -3088.703125  -1314.443848     92.117416
    8194           0       557.658569  -3043.681641  -1314.443848     75.906006
    8195           0       920.394958  -2954.293945  -1314.443848     44.060261
    8196           0      1269.714844  -2821.844238  -1314.443848     14.716900
    8197           0      1600.527344  -2648.261963  -1314.443848     62.254036
    8198           0      1908.010132  -2436.078613  -1314.443848    118.511024
    8199           0      2187.680664  -2188.385742  -1314.443848    163.456787
    8200           0      2435.463867  -1908.794678  -1314.443848    180.434189
    8201           0      2647.746094  -1601.381104  -1314.443848    157.095169
    8202           0      2821.433838  -1270.626953  -1314.443848    136.707779
    8203           0       186.794815  -3088.703125   -938.888367     95.120735
    8204           0       557.658447  -3043.681641   -938.888367     78.252968
    8205           0       920.394958  -2954.293945   -938.888367     45.139568
    8206           0      1269.714722  -2821.844238   -938.888367     13.994270
    8207           0      1600.527222  -2648.261963   -938.888367     63.923313
    8208           0      1908.010132  -2436.078613   -938.888367    122.734535
    8209           0      2187.680664  -2188.385742   -938.888367    171.303513
    8210           0      2435.463867  -1908.794678   -938.888367    191.883911
    8211           0      2647.746094  -1601.381104   -938.888367    170.012695
    8212           0      2821.433838  -1270.626953   -938.888367    131.377579
    8213           0       186.794815  -3088.703125   -563.331787    106.411499
    8214           0       557.658447  -3043.681641   -563.331787     87.529068
    8215           0       920.394958  -2954.293945   -563.331787     50.512981
    8216           0      1269.714722  -2821.844482   -563.331787     13.573773
    8217           0      1600.527100  -2648.262207   -563.331787     70.285027
    8218           0      1908.010132  -2436.078613   -563.331787    137.279190
    8219           0      2187.680664  -2188.385742   -563.331787    195.171143
    8220           0      2435.463867  -1908.794678   -563.331787    223.823929
    8221           0      2647.746094  -1601.381104   -563.331787    199.430542
    8222           0      2821.433838  -1270.626953   -563.331787    130.632309
    8223           0       186.794800  -3088.703125   -187.777267     99.448540
    8224           0       557.658447  -3043.681641   -187.777267     81.759911
    8225           0       920.394897  -2954.293945   -187.777267     47.339725
    8226           0      1269.714722  -2821.844482   -187.777267     13.345985
    8227           0      1600.527100  -2648.262207   -187.777267     65.185593
    8228           0      1908.010010  -2436.078613   -187.777267    127.824821
    8229           0      2187.680664  -2188.385986   -187.777267    183.189178
    8230           0      2435.463867  -1908.794678   -187.777267    212.994156
    8231           0      2647.746094  -1601.381104   -187.777267    193.558807
    8232           0      2821.433838  -1270.626953   -187.777267    117.390251
    8233           0      2954.035645   -921.190063  -33612.22265    251.189636
    8234           0      3043.581055   -558.149414  -33612.22265    359.735352
    8235           0      3088.683105   -186.959442  -33612.22265    423.381287
    8236           0      2954.035645   -921.189941  -33236.66796    271.074036
    8237           0      3043.581299   -558.149048  -33236.66796    376.675690
    8238           0      3088.683105   -186.959229  -33236.66796    449.212799
    8239           0      2954.035645   -921.189941  -32861.10937    271.503662
    8240           0      3043.581299   -558.149048  -32861.10937    345.704285
    8241           0      3088.683105   -186.959229  -32861.11328    406.931915
    8242           0      2954.035645   -921.189941  -32485.55664    275.322998
    8243           0      3043.581299   -558.149048  -32485.55664    336.361481
    8244           0      3088.683105   -186.959244  -32485.55664    395.929382
    8245           0      2954.035645   -921.189941  -32110.00000    274.561707
    8246           0      3043.581299   -558.149048  -32110.00000    317.423126
    8247           0      3088.683105   -186.959259  -32110.00000    373.083954
    8248           0      2954.035645   -921.189941  -31734.44531    274.552338
    8249           0      3043.581299   -558.149048  -31734.44531    303.559021
    8250           0      3088.683105   -186.959259  -31734.44531    354.669250
    8251           0      2954.035645   -921.189941  -31358.88867    273.433441
    8252           0      3043.581299   -558.149048  -31358.89062    289.544067
    8253           0      3088.683105   -186.959259  -31358.89062    335.063660
    8254           0      2954.035645   -921.189941  -30983.33398    271.927795
    8255           0      3043.581299   -558.149048  -30983.33398    278.242706
    8256           0      3088.683105   -186.959259  -30983.33398    316.532501
    8257           0      2954.035645   -921.189941  -30607.77734    269.651489
    8258           0      3043.581299   -558.149048  -30607.77734    268.550507
    8259           0      3088.683105   -186.959259  -30607.77734    298.719971
    8260           0      2954.035645   -921.189941  -30232.22265    266.582581
    8261           0      3043.581299   -558.149048  -30232.22265    261.017365
    8262           0      3088.683105   -186.959259  -30232.22265    282.053436
    8263           0      2954.035645   -921.189941  -29856.66796    262.701752
    8264           0      3043.581299   -558.149109  -29856.66796    255.098175
    8265           0      3088.683105   -186.959290  -29856.66796    266.756073
    8266           0      2954.035645   -921.189941  -29481.10937    257.989624
    8267           0      3043.581299   -558.149170  -29481.10937    250.756760
    8268           0      3088.683105   -186.959305  -29481.10937    252.981323
    8269           0      2954.035645   -921.189941  -29105.55468    252.546692
    8270           0      3043.581299   -558.149170  -29105.55468    247.566757
    8271           0      3088.683105   -186.959305  -29105.55468    240.919037
    8272           0      2954.035645   -921.189941  -28729.99804    246.427368
    8273           0      3043.581299   -558.149170  -28729.99804    245.351181
    8274           0      3088.683105   -186.959305  -28729.99804    230.609161
    8275           0      2954.035645   -921.189941  -28354.44335    239.769211
    8276           0      3043.581299   -558.149170  -28354.44140    243.793243
    8277           0      3088.683105   -186.959305  -28354.44140    222.122498
    8278           0      2954.035645   -921.189941  -27978.88867    232.665741
    8279           0      3043.581299   -558.149170  -27978.88671    242.730057
    8280           0      3088.683105   -186.959305  -27978.88671    215.399185
    8281           0      2954.035645   -921.190002  -27603.33398    225.249664
    8282           0      3043.581299   -558.149170  -27603.33398    241.958359
    8283           0      3088.683105   -186.959305  -27603.33593    210.381927
    8284           0      2954.035645   -921.190002  -27227.77734    217.619125
    8285           0      3043.581299   -558.149170  -27227.77734    241.370010
    8286           0      3088.683105   -186.959320  -27227.77929    206.924316
    8287           0      2954.035645   -921.190002  -26852.22265    209.887375
    8288           0      3043.581299   -558.149231  -26852.22265    240.848282
    8289           0      3088.683105   -186.959335  -26852.22265    204.881821
    8290           0      2954.035645   -921.190002  -26476.66796    202.135818
    8291           0      3043.581299   -558.149231  -26476.66796    240.338898
    8292           0      3088.683105   -186.959335  -26476.66796    204.055908
    8293           0      2954.035645   -921.190002  -26101.11132    194.455109
    8294           0      3043.581299   -558.149231  -26101.10937    239.783188
    8295           0      3088.683105   -186.959335  -26101.11132    204.269302
    8296           0      2954.035645   -921.190002  -25725.55468    186.906219
    8297           0      3043.581299   -558.149231  -25725.55664    239.160995
    8298           0      3088.683105   -186.959335  -25725.55664    205.324463
    8299           0      2954.035645   -921.190002  -25349.99804    179.551163
    8300           0      3043.581299   -558.149231  -25350.00000    238.449982
    8301           0      3088.683105   -186.959335  -25350.00000    207.053879
    8302           0      2954.035645   -921.190002  -24974.44335    172.432266
    8303           0      3043.581299   -558.149231  -24974.44140    237.648697
    8304           0      3088.683105   -186.959335  -24974.44140    209.294754
    8305           0      2954.035645   -921.190002  -24598.89062    165.587402
    8306           0      3043.581299   -558.149231  -24598.89062    236.755096
    8307           0      3088.683105   -186.959351  -24598.88867    211.912552
    8308           0      2954.035645   -921.190002  -24223.33398    159.040558
    8309           0      3043.581299   -558.149231  -24223.33593    235.777054
    8310           0      3088.683105   -186.959366  -24223.33398    214.786911
    8311           0      2954.035645   -921.190002  -23847.77734    152.809982
    8312           0      3043.581299   -558.149231  -23847.77734    234.721893
    8313           0      3088.683105   -186.959366  -23847.77734    217.820587
    8314           0      2954.035645   -921.190002  -23472.22070    146.903015
    8315           0      3043.581299   -558.149231  -23472.21875    233.601807
    8316           0      3088.683105   -186.959366  -23472.22070    220.932144
    8317           0      2954.035645   -921.190002  -23096.66406    141.320923
    8318           0      3043.581299   -558.149231  -23096.66015    232.426575
    8319           0      3088.683105   -186.959366  -23096.66210    224.056442
    8320           0      2954.035645   -921.190063  -22721.10937    136.059555
    8321           0      3043.581299   -558.149292  -22721.10546    231.208939
    8322           0      3088.683105   -186.959366  -22721.10742    227.138458
    8323           0      2954.035645   -921.190063  -22345.55468    131.107483
    8324           0      3043.581299   -558.149292  -22345.55078    229.959381
    8325           0      3088.683105   -186.959366  -22345.55273    230.136093
    8326           0      2954.035645   -921.190063  -21970.00000    126.447952
    8327           0      3043.581299   -558.149292  -21969.99804    228.689377
    8328           0      3088.683105   -186.959381  -21969.99609    233.014862
    8329           0      2954.035645   -921.190063  -21594.44531    122.060181
    8330           0      3043.581299   -558.149292  -21594.44531    227.409058
    8331           0      3088.683105   -186.959396  -21594.44531    235.747421
    8332           0      2954.035645   -921.190063  -21218.88867    117.920105
    8333           0      3043.581299   -558.149292  -21218.88867    226.127670
    8334           0      3088.683105   -186.959396  -21218.88867    238.312759
    8335           0      2954.035645   -921.190063  -20843.33398    114.000870
    8336           0      3043.581299   -558.149292  -20843.33398    224.853622
    8337           0      3088.683105   -186.959396  -20843.33398    240.693420
    8338           0      2954.035645   -921.190063  -20467.77929    110.273041
    8339           0      3043.581299   -558.149292  -20467.78125    223.594818
    8340           0      3088.683105   -186.959396  -20467.77929    242.875290
    8341           0      2954.035645   -921.190063  -20092.22070    106.706406
    8342           0      3043.581299   -558.149292  -20092.21875    222.357544
    8343           0      3088.683105   -186.959396  -20092.22070    244.847931
    8344           0      2954.035645   -921.190063  -19716.66601    103.269508
    8345           0      3043.581299   -558.149292  -19716.66601    221.147491
    8346           0      3088.683105   -186.959396  -19716.66796    246.601807
    8347           0      2954.035645   -921.190063  -19341.11328     99.931831
    8348           0      3043.581299   -558.149292  -19341.11523    219.970215
    8349           0      3088.683105   -186.959412  -19341.11328    248.128830
    8350           0      2954.035645   -921.190063  -18965.55468     96.662392
    8351           0      3043.581299   -558.149353  -18965.55468    218.829193
    8352           0      3088.683105   -186.959427  -18965.55468    249.422699
    8353           0      2954.035645   -921.190063  -18590.00000     93.431580
    8354           0      3043.581299   -558.149353  -18590.00000    217.727707
    8355           0      3088.683105   -186.959427  -18590.00000    250.477631
    8356           0      2954.035645   -921.190063  -18214.44531     90.211296
    8357           0      3043.581299   -558.149353  -18214.44531    216.668213
    8358           0      3088.683105   -186.959427  -18214.44531    251.287872
    8359           0      2954.035645   -921.190063  -17838.88867     86.975227
    8360           0      3043.581299   -558.149353  -17838.88671    215.652069
    8361           0      3088.683105   -186.959427  -17838.88867    251.848358
    8362           0      2954.035645   -921.190063  -17463.33203     83.699600
    8363           0      3043.581299   -558.149353  -17463.33203    214.679977
    8364           0      3088.683105   -186.959427  -17463.33203    252.153976
    8365           0      2954.035645   -921.190063  -17087.77734     80.363159
    8366           0      3043.581299   -558.149353  -17087.77734    213.752029
    8367           0      3088.683105   -186.959427  -17087.77734    252.198624
    8368           0      2954.035645   -921.190063  -16712.22070     76.947891
    8369           0      3043.581299   -558.149414  -16712.22265    212.867783
    8370           0      3088.683105   -186.959442  -16712.22265    251.975922
    8371           0      2954.035645   -921.190063  -16336.66601     73.438538
    8372           0      3043.581299   -558.149414  -16336.66796    212.025085
    8373           0      3088.683105   -186.959473  -16336.66796    251.480377
    8374           0      2954.035645   -921.190063  -15961.11035     69.826569
    8375           0      3043.581299   -558.149414  -15961.10937    211.221588
    8376           0      3088.683105   -186.959473  -15961.10937    250.705383
    8377           0      2954.035645   -921.190063  -15585.55371     66.106392
    8378           0      3043.581299   -558.149414  -15585.55273    210.454376
    8379           0      3088.683105   -186.959473  -15585.55273    249.642380
    8380           0      2954.035645   -921.190063  -15209.99902     62.279331
    8381           0      3043.581299   -558.149414  -15210.00000    209.718689
    8382           0      3088.683105   -186.959473  -15209.99902    248.284576
    8383           0      2954.035645   -921.190063  -14834.44433     58.356621
    8384           0      3043.581299   -558.149414  -14834.44335    209.008987
    8385           0      3088.683105   -186.959473  -14834.44335    246.623047
    8386           0      2954.035645   -921.190063  -14458.88769     54.361607
    8387           0      3043.581299   -558.149414  -14458.88671    208.319839
    8388           0      3088.683105   -186.959488  -14458.88769    244.646942
    8389           0      2954.035645   -921.190063  -14083.33496     50.333736
    8390           0      3043.581299   -558.149414  -14083.33398    207.642990
    8391           0      3088.683105   -186.959503  -14083.33203    242.346634
    8392           0      2954.035645   -921.190063  -13707.77929     46.331146
    8393           0      3043.581299   -558.149414  -13707.77832    206.970673
    8394           0      3088.683105   -186.959503  -13707.77636    239.711700
    8395           0      2954.035645   -921.190063  -13332.22460     42.457504
    8396           0      3043.581299   -558.149414  -13332.22656    206.290955
    8397           0      3088.683105   -186.959503  -13332.22460    236.727997
    8398           0      2954.035645   -921.190063  -12956.67382     38.859264
    8399           0      3043.581055   -558.149475  -12956.67968    205.592377
    8400           0      3088.683105   -186.959503  -12956.67382    233.386353
    8401           0      2954.035645   -921.190063  -12581.11718     35.746368
    8402           0      3043.581055   -558.149475  -12581.12402    204.860916
    8403           0      3088.683105   -186.959503  -12581.11914    229.669586
    8404           0      2954.035645   -921.190063  -12205.56054     33.416763
    8405           0      3043.581055   -558.149475  -12205.56640    204.083679
    8406           0      3088.683105   -186.959503  -12205.56054    225.563965
    8407           0      2954.035645   -921.190063  -11830.00000     32.190639
    8408           0      3043.581055   -558.149475  -11830.00097    203.242859
    8409           0      3088.683105   -186.959518  -11830.00000    221.052902
    8410           0      2954.035645   -921.190063  -11454.43945     32.377304
    8411           0      3043.581055   -558.149536  -11454.43554    202.317490
    8412           0      3088.683105   -186.959534  -11454.44043    216.124115
    8413           0      2954.035645   -921.190063  -11078.88867     34.110638
    8414           0      3043.581055   -558.149536  -11078.88867    201.285995
    8415           0      3088.683105   -186.959534  -11078.88769    210.760178
    8416           0      2954.035645   -921.190063  -10703.33203     37.328323
    8417           0      3043.581055   -558.149536  -10703.33007    200.123703
    8418           0      3088.683105   -186.959534  -10703.33105    204.947067
    8419           0      2954.035645   -921.190063  -10327.77539     41.813576
    8420           0      3043.581055   -558.149536  -10327.77246    198.803192
    8421           0      3088.683105   -186.959534  -10327.77539    198.671524
    8422           0      2954.035645   -921.190063  -9952.218750     47.311211
    8423           0      3043.581055   -558.149536  -9952.215820    197.294388
    8424           0      3088.683105   -186.959534  -9952.218750    191.922501
    8425           0      2954.035645   -921.190063  -9576.661133     53.588165
    8426           0      3043.581055   -558.149536  -9576.658203    195.564453
    8427           0      3088.683105   -186.959534  -9576.662109    184.692734
    8428           0      2954.035645   -921.190063  -9201.110352     60.454594
    8429           0      3043.581055   -558.149536  -9201.111328    193.577072
    8430           0      3088.683105   -186.959549  -9201.112305    176.982056
    8431           0      2954.035645   -921.190063  -8825.558594     67.757751
    8432           0      3043.581055   -558.149536  -8825.563477    191.294525
    8433           0      3088.683105   -186.959564  -8825.559570    168.800110
    8434           0      2954.035645   -921.190125  -8450.000977     75.369743
    8435           0      3043.581055   -558.149536  -8450.000977    188.675171
    8436           0      3088.683105   -186.959564  -8450.000977    160.171646
    8437           0      2954.035645   -921.190125  -8074.442383     83.175819
    8438           0      3043.581055   -558.149536  -8074.438477    185.680771
    8439           0      3088.683105   -186.959564  -8074.442383    151.141541
    8440           0      2954.035645   -921.190125  -7698.886230     91.070427
    8441           0      3043.581055   -558.149536  -7698.885742    182.272415
    8442           0      3088.683105   -186.959564  -7698.888672    141.787399
    8443           0      2954.035645   -921.190125  -7323.329590     98.941490
    8444           0      3043.581055   -558.149536  -7323.327148    178.415298
    8445           0      3088.683105   -186.959564  -7323.332031    132.236115
    8446           0      2954.035645   -921.190125  -6947.776367    106.679169
    8447           0      3043.581055   -558.149536  -6947.774902    174.080933
    8448           0      3088.683105   -186.959564  -6947.776367    122.686188
    8449           0      2954.035645   -921.190125  -6572.225586    114.158417
    8450           0      3043.581055   -558.149536  -6572.228027    169.261185
    8451           0      3088.683105   -186.959579  -6572.225098    113.438362
    8452           0      2954.035645   -921.190125  -6196.666992    121.253799
    8453           0      3043.581055   -558.149597  -6196.667480    163.964584
    8454           0      3088.683105   -186.959595  -6196.667480    104.943069
    8455           0      2954.035645   -921.190125  -5821.108398    127.818832
    8456           0      3043.581055   -558.149597  -5821.106445    158.249649
    8457           0      3088.683105   -186.959595  -5821.109375     97.831406
    8458           0      2954.035645   -921.190125  -5445.557129    133.714569
    8459           0      3043.581055   -558.149597  -5445.559570    152.215851
    8460           0      3088.683105   -186.959595  -5445.558105     92.931198
    8461           0      2954.035645   -921.190125  -5070.000488    138.780777
    8462           0      3043.581055   -558.149597  -5070.000977    146.072464
    8463           0      3088.683105   -186.959595  -5070.000488     91.135803
    8464           0      2954.035645   -921.190125  -4694.443359    142.882507
    8465           0      3043.581055   -558.149597  -4694.441406    140.111588
    8466           0      3088.683105   -186.959595  -4694.442383     93.185837
    8467           0      2954.035645   -921.190125  -4318.887695    145.877518
    8468           0      3043.581055   -558.149597  -4318.888184    134.842453
    8469           0      3088.683105   -186.959595  -4318.889648     99.335388
    8470           0      2954.035645   -921.190125  -3943.329834    147.683167
    8471           0      3043.581055   -558.149658  -3943.328125    130.861664
    8472           0      3088.683105   -186.959610  -3943.332031    109.344177
    8473           0      2954.035645   -921.190125  -3567.776123    148.261002
    8474           0      3043.581055   -558.149658  -3567.774170    129.100037
    8475           0      3088.683105   -186.959625  -3567.776123    122.595421
    8476           0      2954.035645   -921.190186  -3192.224609    147.665222
    8477           0      3043.581055   -558.149658  -3192.227539    130.258881
    8478           0      3088.683105   -186.959625  -3192.224365    138.381241
    8479           0      2954.035645   -921.190186  -2816.670898    146.163773
    8480           0      3043.581055   -558.149658  -2816.673584    135.442001
    8481           0      3088.683105   -186.959625  -2816.668457    156.120178
    8482           0      2954.035645   -921.190186  -2441.111816    143.981171
    8483           0      3043.581055   -558.149658  -2441.110352    144.347519
    8484           0      3088.683105   -186.959625  -2441.109863    175.001572
    8485           0      2954.035645   -921.190186  -2065.554443    142.156357
    8486           0      3043.581055   -558.149658  -2065.554932    158.268112
    8487           0      3088.683105   -186.959625  -2065.555176    195.300812
    8488           0      2954.035645   -921.190186  -1689.999390    140.402054
    8489           0      3043.581055   -558.149658  -1690.000488    173.683289
    8490           0      3088.683105   -186.959625  -1689.999390    214.558304
    8491           0      2954.035645   -921.190186  -1314.445313    141.737732
    8492           0      3043.581055   -558.149658  -1314.445923    196.202484
    8493           0      3088.683105   -186.959656  -1314.444336    238.082291
    8494           0      2954.035645   -921.190186   -938.888855    141.209198
    8495           0      3043.581055   -558.149719   -938.891357    210.175720
    8496           0      3088.683105   -186.959671   -938.890869    251.194107
    8497           0      2954.035645   -921.190186   -563.328796    148.772797
    8498           0      3043.581055   -558.149719   -563.328308    246.981461
    8499           0      3088.683105   -186.959671   -563.331299    290.332520
    8500           0      2954.035645   -921.190186   -187.775253    140.594986
    8501           0      3043.581055   -558.149719   -187.773239    238.479889
    8502           0      3088.683105   -186.959671   -187.775253    274.387604
    8503           0     -3088.683105   -186.960587  -33612.22265    298.902740
    8504           0     -3043.581055   -558.151123  -33612.22265    265.711639
    8505           0     -2954.035645   -921.190552  -33612.22265    228.693451
    8506           0     -3088.683105   -186.960693  -33236.66796    304.268402
    8507           0     -3043.581055   -558.151428  -33236.66796    268.288147
    8508           0     -2954.035645   -921.190796  -33236.66796    264.232117
    8509           0     -3088.683105   -186.960693  -32861.10937    278.168152
    8510           0     -3043.581055   -558.151428  -32861.11328    257.217773
    8511           0     -2954.035645   -921.190796  -32861.11328    276.345551
    8512           0     -3088.683105   -186.960693  -32485.55664    268.598694
    8513           0     -3043.581055   -558.151428  -32485.55664    254.026993
    8514           0     -2954.035645   -921.190735  -32485.55664    287.324432
    8515           0     -3088.683105   -186.960693  -32110.00000    253.142532
    8516           0     -3043.581055   -558.151367  -32110.00000    248.450439
    8517           0     -2954.035645   -921.190674  -32110.00000    296.087738
    8518           0     -3088.683105   -186.960693  -31734.44531    241.607712
    8519           0     -3043.581055   -558.151367  -31734.44531    246.577545
    8520           0     -2954.035645   -921.190674  -31734.44531    302.099823
    8521           0     -3088.683105   -186.960693  -31358.89062    230.241318
    8522           0     -3043.581055   -558.151367  -31358.89062    245.413651
    8523           0     -2954.035645   -921.190674  -31358.88867    306.873077
    8524           0     -3088.683105   -186.960693  -30983.33398    221.010483
    8525           0     -3043.581055   -558.151367  -30983.33398    246.862885
    8526           0     -2954.035645   -921.190674  -30983.33398    309.724396
    8527           0     -3088.683105   -186.960693  -30607.77734    213.443573
    8528           0     -3043.581055   -558.151367  -30607.77734    249.254242
    8529           0     -2954.035645   -921.190674  -30607.77734    311.260864
    8530           0     -3088.683105   -186.960678  -30232.22265    207.967361
    8531           0     -3043.581055   -558.151367  -30232.22265    253.160950
    8532           0     -2954.035645   -921.190674  -30232.22265    311.197235
    8533           0     -3088.683105   -186.960663  -29856.66796    204.590317
    8534           0     -3043.581055   -558.151367  -29856.66796    257.507202
    8535           0     -2954.035645   -921.190674  -29856.66796    309.861786
    8536           0     -3088.683105   -186.960663  -29481.10937    203.215988
    8537           0     -3043.581055   -558.151367  -29481.10937    262.419403
    8538           0     -2954.035645   -921.190674  -29481.10937    307.236786
    8539           0     -3088.683105   -186.960663  -29105.55468    203.773270
    8540           0     -3043.581055   -558.151367  -29105.55468    267.273376
    8541           0     -2954.035645   -921.190674  -29105.55468    303.562012
    8542           0     -3088.683105   -186.960663  -28729.99804    205.936371
    8543           0     -3043.581055   -558.151367  -28729.99804    272.087982
    8544           0     -2954.035645   -921.190674  -28729.99804    298.941498
    8545           0     -3088.683105   -186.960663  -28354.44140    209.516220
    8546           0     -3043.581055   -558.151367  -28354.44140    276.544373
    8547           0     -2954.035645   -921.190674  -28354.44140    293.571655
    8548           0     -3088.683105   -186.960663  -27978.88867    214.146973
    8549           0     -3043.581055   -558.151367  -27978.89062    280.658722
    8550           0     -2954.035645   -921.190674  -27978.89062    287.589844
    8551           0     -3088.683105   -186.960663  -27603.33398    219.615067
    8552           0     -3043.581055   -558.151367  -27603.33593    284.291443
    8553           0     -2954.035645   -921.190674  -27603.33593    281.155304
    8554           0     -3088.683105   -186.960663  -27227.77929    225.621796
    8555           0     -3043.581055   -558.151306  -27227.77929    287.473938
    8556           0     -2954.035645   -921.190674  -27227.77929    274.396362
    8557           0     -3088.683105   -186.960663  -26852.22265    231.993500
    8558           0     -3043.581055   -558.151306  -26852.22265    290.162689
    8559           0     -2954.035645   -921.190674  -26852.22265    267.435730
    8560           0     -3088.683105   -186.960663  -26476.66796    238.525360
    8561           0     -3043.581055   -558.151306  -26476.66796    292.399261
    8562           0     -2954.035645   -921.190674  -26476.66796    260.375244
    8563           0     -3088.683105   -186.960663  -26101.11132    245.098236
    8564           0     -3043.581055   -558.151306  -26101.11132    294.186279
    8565           0     -2954.035645   -921.190674  -26101.11132    253.305939
    8566           0     -3088.683105   -186.960663  -25725.55468    251.585648
    8567           0     -3043.581055   -558.151306  -25725.55664    295.567688
    8568           0     -2954.035645   -921.190674  -25725.55664    246.300507
    8569           0     -3088.683105   -186.960648  -25349.99804    257.916351
    8570           0     -3043.581055   -558.151245  -25350.00000    296.566528
    8571           0     -2954.035645   -921.190674  -25349.99804    239.418610
    8572           0     -3088.683105   -186.960632  -24974.44140    264.018219
    8573           0     -3043.581055   -558.151245  -24974.44140    297.223907
    8574           0     -2954.035645   -921.190552  -24974.44140    232.707748
    8575           0     -3088.683105   -186.960632  -24598.88671    269.852417
    8576           0     -3043.581055   -558.151245  -24598.88671    297.568726
    8577           0     -2954.035645   -921.190552  -24598.88671    226.203033
    8578           0     -3088.683105   -186.960632  -24223.33398    275.381531
    8579           0     -3043.581055   -558.151245  -24223.33398    297.637054
    8580           0     -2954.035645   -921.190552  -24223.33398    219.930206
    8581           0     -3088.683105   -186.960632  -23847.77734    280.587372
    8582           0     -3043.581055   -558.151245  -23847.77734    297.456970
    8583           0     -2954.035645   -921.190552  -23847.77734    213.905151
    8584           0     -3088.683105   -186.960632  -23472.22070    285.453125
    8585           0     -3043.581055   -558.151245  -23472.21875    297.058868
    8586           0     -2954.035645   -921.190552  -23472.22070    208.136688
    8587           0     -3088.683105   -186.960632  -23096.66406    289.973083
    8588           0     -3043.581055   -558.151184  -23096.66015    296.467285
    8589           0     -2954.035645   -921.190552  -23096.66406    202.625305
    8590           0     -3088.683105   -186.960632  -22721.10937    294.141235
    8591           0     -3043.581055   -558.151184  -22721.10546    295.706940
    8592           0     -2954.035645   -921.190552  -22721.10937    197.369034
    8593           0     -3088.683105   -186.960632  -22345.55468    297.958435
    8594           0     -3043.581055   -558.151184  -22345.55273    294.798248
    8595           0     -2954.035645   -921.190552  -22345.55273    192.357681
    8596           0     -3088.683105   -186.960632  -21970.00000    301.425842
    8597           0     -3043.581055   -558.151184  -21969.99804    293.760529
    8598           0     -2954.035645   -921.190552  -21970.00000    187.579391
    8599           0     -3088.683105   -186.960632  -21594.44335    304.546753
    8600           0     -3043.581055   -558.151184  -21594.44335    292.610626
    8601           0     -2954.035645   -921.190552  -21594.44531    183.017868
    8602           0     -3088.683105   -186.960632  -21218.88867    307.325165
    8603           0     -3043.581055   -558.151184  -21218.88867    291.363159
    8604           0     -2954.035645   -921.190552  -21218.88867    178.656097
    8605           0     -3088.683105   -186.960632  -20843.33203    309.765656
    8606           0     -3043.581055   -558.151184  -20843.33203    290.032013
    8607           0     -2954.035645   -921.190552  -20843.33203    174.473892
    8608           0     -3088.683105   -186.960602  -20467.77734    311.872375
    8609           0     -3043.581055   -558.151184  -20467.77929    288.627716
    8610           0     -2954.035645   -921.190552  -20467.77734    170.451584
    8611           0     -3088.683105   -186.960602  -20092.22265    313.650116
    8612           0     -3043.581055   -558.151123  -20092.22265    287.160675
    8613           0     -2954.035645   -921.190552  -20092.22265    166.566956
    8614           0     -3088.683105   -186.960602  -19716.66796    315.102570
    8615           0     -3043.581055   -558.151123  -19716.66601    285.639984
    8616           0     -2954.035645   -921.190552  -19716.66796    162.798965
    8617           0     -3088.683105   -186.960602  -19341.11328    316.233215
    8618           0     -3043.581055   -558.151123  -19341.11328    284.072205
    8619           0     -2954.035645   -921.190552  -19341.11328    159.127701
    8620           0     -3088.683105   -186.960602  -18965.55468    317.045654
    8621           0     -3043.581055   -558.151123  -18965.55468    282.463623
    8622           0     -2954.035645   -921.190552  -18965.55468    155.533203
    8623           0     -3088.683105   -186.960602  -18590.00000    317.541504
    8624           0     -3043.581055   -558.151123  -18590.00000    280.819550
    8625           0     -2954.035645   -921.190552  -18590.00000    151.996979
    8626           0     -3088.683105   -186.960587  -18214.44531    317.722626
    8627           0     -3043.581055   -558.151123  -18214.44531    279.144196
    8628           0     -2954.035645   -921.190552  -18214.44531    148.501724
    8629           0     -3088.683105   -186.960571  -17838.88867    317.589569
    8630           0     -3043.581055   -558.151123  -17838.88867    277.440887
    8631           0     -2954.035645   -921.190552  -17838.88867    145.032288
    8632           0     -3088.683105   -186.960571  -17463.33203    317.142212
    8633           0     -3043.581055   -558.151123  -17463.33203    275.711975
    8634           0     -2954.035645   -921.190552  -17463.33203    141.575226
    8635           0     -3088.683105   -186.960571  -17087.77734    316.379303
    8636           0     -3043.581055   -558.151123  -17087.77929    273.959137
    8637           0     -2954.035645   -921.190552  -17087.77734    138.120026
    8638           0     -3088.683105   -186.960571  -16712.22265    315.298767
    8639           0     -3043.581055   -558.151123  -16712.22265    272.183228
    8640           0     -2954.035645   -921.190552  -16712.22265    134.657944
    8641           0     -3088.683105   -186.960571  -16336.66796    313.897705
    8642           0     -3043.581055   -558.151123  -16336.66992    270.383423
    8643           0     -2954.035645   -921.190552  -16336.66796    131.184341
    8644           0     -3088.683105   -186.960571  -15961.10839    312.171906
    8645           0     -3043.581055   -558.151123  -15961.10742    268.559845
    8646           0     -2954.035645   -921.190552  -15961.10937    127.697487
    8647           0     -3088.683105   -186.960571  -15585.55273    310.116516
    8648           0     -3043.581055   -558.151062  -15585.55078    266.709808
    8649           0     -2954.035645   -921.190552  -15585.55273    124.200417
    8650           0     -3088.683105   -186.960571  -15209.99902    307.725128
    8651           0     -3043.581055   -558.151062  -15209.99902    264.830872
    8652           0     -2954.035645   -921.190552  -15209.99902    120.698692
    8653           0     -3088.683105   -186.960571  -14834.44335    304.989990
    8654           0     -3043.581055   -558.151062  -14834.44335    262.919006
    8655           0     -2954.035645   -921.190552  -14834.44335    117.205750
    8656           0     -3088.683105   -186.960571  -14458.88769    301.903076
    8657           0     -3043.581055   -558.151062  -14458.88769    260.969482
    8658           0     -2954.035645   -921.190552  -14458.88769    113.736923
    8659           0     -3088.683105   -186.960571  -14083.33203    298.453979
    8660           0     -3043.581055   -558.151062  -14083.33105    258.975739
    8661           0     -2954.035645   -921.190552  -14083.33203    110.320076
    8662           0     -3088.683105   -186.960571  -13707.77636    294.632202
    8663           0     -3043.581055   -558.151062  -13707.77539    256.930786
    8664           0     -2954.035645   -921.190552  -13707.77636    106.980865
    8665           0     -3088.683105   -186.960556  -13332.22460    290.423523
    8666           0     -3043.581055   -558.151062  -13332.22460    254.826218
    8667           0     -2954.035645   -921.190491  -13332.22168    103.768600
    8668           0     -3088.683105   -186.960541  -12956.67187    285.817352
    8669           0     -3043.581055   -558.151001  -12956.67382    252.647858
    8670           0     -2954.035645   -921.190430  -12956.66992    100.715050
    8671           0     -3088.683105   -186.960541  -12581.11718    280.795532
    8672           0     -3043.581055   -558.151001  -12581.11816    250.388000
    8673           0     -2954.035645   -921.190430  -12581.11425     97.902084
    8674           0     -3088.683105   -186.960541  -12205.55957    275.342407
    8675           0     -3043.581055   -558.151001  -12205.56054    248.027023
    8676           0     -2954.035645   -921.190430  -12205.55664     95.371544
    8677           0     -3088.683105   -186.960541  -11830.00097    269.438599
    8678           0     -3043.581055   -558.151001  -11830.00097    245.554214
    8679           0     -2954.035645   -921.190430  -11830.00000     93.211487
    8680           0     -3088.683105   -186.960541  -11454.44140    263.066711
    8681           0     -3043.581055   -558.151001  -11454.43945    242.944382
    8682           0     -2954.035645   -921.190430  -11454.44335     91.494080
    8683           0     -3088.683105   -186.960541  -11078.88867    256.204712
    8684           0     -3043.581055   -558.151001  -11078.88769    240.177505
    8685           0     -2954.035645   -921.190430  -11078.88867     90.301483
    8686           0     -3088.683105   -186.960541  -10703.33203    248.831070
    8687           0     -3043.581055   -558.151001  -10703.33105    237.227142
    8688           0     -2954.035645   -921.190430  -10703.33203     89.705307
    8689           0     -3088.683105   -186.960541  -10327.77539    240.923172
    8690           0     -3043.581055   -558.150940  -10327.77539    234.063904
    8691           0     -2954.035645   -921.190430  -10327.77636     89.765678
    8692           0     -3088.683105   -186.960541  -9952.218750    232.458664
    8693           0     -3043.581055   -558.150940  -9952.218750    230.654144
    8694           0     -2954.035645   -921.190430  -9952.219727     90.523399
    8695           0     -3088.683105   -186.960541  -9576.664063    223.413864
    8696           0     -3043.581055   -558.150940  -9576.662109    226.960281
    8697           0     -2954.035645   -921.190430  -9576.664063     91.996460
    8698           0     -3088.683105   -186.960541  -9201.111328    213.767807
    8699           0     -3043.581055   -558.150940  -9201.111328    222.940994
    8700           0     -2954.035645   -921.190430  -9201.111328     94.170303
    8701           0     -3088.683105   -186.960541  -8825.557617    203.502594
    8702           0     -3043.581055   -558.150940  -8825.559570    218.548615
    8703           0     -2954.035645   -921.190430  -8825.556641     97.002708
    8704           0     -3088.683105   -186.960526  -8450.000977    192.603836
    8705           0     -3043.581055   -558.150879  -8450.000977    213.733109
    8706           0     -2954.035645   -921.190430  -8450.000977    100.421669
    8707           0     -3088.683105   -186.960510  -8074.443359    181.066315
    8708           0     -3043.581055   -558.150879  -8074.441406    208.437820
    8709           0     -2954.035645   -921.190430  -8074.443359    104.331291
    8710           0     -3088.683105   -186.960510  -7698.890137    168.897110
    8711           0     -3043.581055   -558.150879  -7698.890625    202.605713
    8712           0     -2954.035645   -921.190430  -7698.889648    108.612740
    8713           0     -3088.683105   -186.960510  -7323.333496    156.124817
    8714           0     -3043.581055   -558.150879  -7323.333984    196.174362
    8715           0     -2954.035645   -921.190430  -7323.333984    113.132988
    8716           0     -3088.683105   -186.960510  -6947.776855    142.808685
    8717           0     -3043.581055   -558.150879  -6947.776367    189.084824
    8718           0     -2954.035645   -921.190430  -6947.777344    117.738533
    8719           0     -3088.683105   -186.960510  -6572.224609    129.065811
    8720           0     -3043.581055   -558.150879  -6572.225098    181.280502
    8721           0     -2954.035645   -921.190430  -6572.223633    122.267151
    8722           0     -3088.683105   -186.960510  -6196.666992    115.098694
    8723           0     -3043.581055   -558.150879  -6196.667480    172.717789
    8724           0     -2954.035645   -921.190430  -6196.667480    126.538773
    8725           0     -3088.683105   -186.960510  -5821.109863    101.274002
    8726           0     -3043.581055   -558.150879  -5821.109375    163.374954
    8727           0     -2954.035645   -921.190308  -5821.110840    130.366302
    8728           0     -3088.683105   -186.960510  -5445.557129     88.224480
    8729           0     -3043.581055   -558.150879  -5445.558105    153.268005
    8730           0     -2954.035645   -921.190308  -5445.556641    133.548218
    8731           0     -3088.683105   -186.960510  -5070.000000     77.059944
    8732           0     -3043.581055   -558.150879  -5070.000488    142.485474
    8733           0     -2954.035645   -921.190308  -5070.000488    135.879959
    8734           0     -3088.683105   -186.960510  -4694.442871     69.498352
    8735           0     -3043.581055   -558.150879  -4694.442383    131.221222
    8736           0     -2954.035645   -921.190308  -4694.443848    137.155365
    8737           0     -3088.683105   -186.960510  -4318.891113     67.635857
    8738           0     -3043.581055   -558.150879  -4318.892578    119.884254
    8739           0     -2954.035645   -921.190308  -4318.890137    137.177689
    8740           0     -3088.683105   -186.960510  -3943.334229     72.624191
    8741           0     -3043.581055   -558.150879  -3943.334473    109.149788
    8742           0     -2954.035645   -921.190308  -3943.333984    135.785034
    8743           0     -3088.683105   -186.960495  -3567.776611     83.873108
    8744           0     -3043.581055   -558.150818  -3567.776123    100.255280
    8745           0     -2954.035645   -921.190308  -3567.777588    132.865402
    8746           0     -3088.683105   -186.960480  -3192.223389     99.571640
    8747           0     -3043.581055   -558.150818  -3192.224365     94.777756
    8748           0     -2954.035645   -921.190308  -3192.222412    128.417908
    8749           0     -3088.683105   -186.960480  -2816.666016    118.339638
    8750           0     -3043.581055   -558.150818  -2816.666016     94.915131
    8751           0     -2954.035645   -921.190308  -2816.666016    122.624962
    8752           0     -3088.683105   -186.960480  -2441.108887    138.630737
    8753           0     -3043.581055   -558.150818  -2441.107422    101.337975
    8754           0     -2954.035645   -921.190308  -2441.109863    115.860611
    8755           0     -3088.683105   -186.960480  -2065.555420    160.614532
    8756           0     -3043.581055   -558.150818  -2065.555420    115.133080
    8757           0     -2954.035645   -921.190308  -2065.554932    109.152206
    8758           0     -3088.683105   -186.960480  -1689.998901    181.483444
    8759           0     -3043.581055   -558.150818  -1689.999390    132.253250
    8760           0     -2954.035645   -921.190308  -1689.998901    103.148087
    8761           0     -3088.683105   -186.960480  -1314.443848    206.533951
    8762           0     -3043.581055   -558.150818  -1314.444336    157.001892
    8763           0     -2954.035645   -921.190308  -1314.444336    100.839401
    8764           0     -3088.683105   -186.960480   -938.891418    221.455399
    8765           0     -3043.581055   -558.150757   -938.893433    174.113510
    8766           0     -2954.035645   -921.190308   -938.890381     99.376732
    8767           0     -3088.683105   -186.960480   -563.332825    260.897034
    8768           0     -3043.581055   -558.150757   -563.333801    212.416367
    8769           0     -2954.035645   -921.190308   -563.332825    106.885551
    8770           0     -3088.683105   -186.960480   -187.775757    248.724899
    8771           0     -3043.581055   -558.150757   -187.775253    206.961777
    8772           0     -2954.035645   -921.190308   -187.776764     99.607811
    8773           0     -2821.431641  -1270.631104  -33612.22265    348.041321
    8774           0     -2647.742676  -1601.387085  -33612.22265    436.643921
    8775           0     -2435.458008  -1908.801758  -33612.22265    475.257935
    8776           0     -2187.674316  -2188.392578  -33612.22265    463.721619
    8777           0     -1908.001831  -2436.084717  -33612.22265    424.879059
    8778           0     -1600.518066  -2648.268066  -33612.22265    376.565643
    8779           0     -1269.705933  -2821.848145  -33612.22265    328.308075
    8780           0      -920.385498  -2954.297119  -33612.22265    285.722382
    8781           0      -557.650330  -3043.683105  -33612.22265    252.132050
    8782           0      -186.789215  -3088.704102  -33612.22265    229.522385
    8783           0     -2821.431641  -1270.631348  -33236.66796    343.582031
    8784           0     -2647.741943  -1601.388184  -33236.66796    455.087799
    8785           0     -2435.456787  -1908.803345  -33236.66796    507.395782
    8786           0     -2187.672363  -2188.394531  -33236.66796    499.717529
    8787           0     -1907.999390  -2436.086426  -33236.66796    461.131744
    8788           0     -1600.515381  -2648.269775  -33236.66796    409.972473
    8789           0     -1269.703369  -2821.849365  -33236.66796    358.602020
    8790           0      -920.383179  -2954.297852  -33236.66796    312.866852
    8791           0      -557.648499  -3043.683594  -33236.66796    276.764954
    8792           0      -186.788834  -3088.704102  -33236.66796    252.318817
    8793           0     -2821.431641  -1270.631348  -32861.10937    318.488525
    8794           0     -2647.741943  -1601.388184  -32861.10937    402.988739
    8795           0     -2435.456787  -1908.803223  -32861.10937    455.186157
    8796           0     -2187.672607  -2188.394531  -32861.10937    457.627563
    8797           0     -1907.999512  -2436.086426  -32861.10937    426.390656
    8798           0     -1600.515503  -2648.269531  -32861.10937    382.112946
    8799           0     -1269.703613  -2821.849121  -32861.10937    335.810120
    8800           0      -920.383301  -2954.297852  -32861.10937    294.575378
    8801           0      -557.648560  -3043.683594  -32861.10937    261.628082
    8802           0      -186.788834  -3088.704102  -32861.11328    239.244186
    8803           0     -2821.431641  -1270.631348  -32485.55664    312.538025
    8804           0     -2647.741943  -1601.388184  -32485.55664    388.652252
    8805           0     -2435.456787  -1908.803223  -32485.55664    441.056824
    8806           0     -2187.672607  -2188.394531  -32485.55664    448.119202
    8807           0     -1907.999512  -2436.086426  -32485.55664    421.361603
    8808           0     -1600.515503  -2648.269531  -32485.55664    379.055359
    8809           0     -1269.703613  -2821.849121  -32485.55664    334.534027
    8810           0      -920.383301  -2954.297852  -32485.55664    294.288849
    8811           0      -557.648560  -3043.683594  -32485.55664    262.290558
    8812           0      -186.788834  -3088.704102  -32485.55664    240.229630
    8813           0     -2821.431641  -1270.631348  -32110.00000    299.016968
    8814           0     -2647.741943  -1601.387939  -32110.00000    359.815125
    8815           0     -2435.456787  -1908.803223  -32110.00000    413.882080
    8816           0     -2187.672607  -2188.394531  -32110.00000    427.348145
    8817           0     -1907.999512  -2436.086426  -32110.00000    406.284760
    8818           0     -1600.515503  -2648.269531  -32110.00000    368.135040
    8819           0     -1269.703613  -2821.849121  -32110.00000    326.354675
    8820           0      -920.383362  -2954.297852  -32110.00000    288.460999
    8821           0      -557.648621  -3043.683594  -32110.00000    258.035767
    8822           0      -186.788834  -3088.704102  -32110.00000    236.979416
    8823           0     -2821.431641  -1270.631348  -31734.44531    292.945740
    8824           0     -2647.741943  -1601.387939  -31734.44531    340.583038
    8825           0     -2435.456787  -1908.803223  -31734.44531    391.579163
    8826           0     -2187.672607  -2188.394287  -31734.44531    410.068146
    8827           0     -1907.999756  -2436.086426  -31734.44531    394.093628
    8828           0     -1600.515625  -2648.269531  -31734.44531    359.511169
    8829           0     -1269.703613  -2821.849121  -31734.44531    320.257629
    8830           0      -920.383423  -2954.297852  -31734.44531    284.232117
    8831           0      -557.648682  -3043.683594  -31734.44531    255.229553
    8832           0      -186.788834  -3088.704102  -31734.44531    234.924133
    8833           0     -2821.431641  -1270.631348  -31358.88867    285.541870
    8834           0     -2647.741943  -1601.387939  -31358.88867    320.473480
    8835           0     -2435.456787  -1908.803223  -31358.88867    368.873718
    8836           0     -2187.672607  -2188.394287  -31358.88867    391.920654
    8837           0     -1907.999756  -2436.086426  -31358.88867    381.101501
    8838           0     -1600.515625  -2648.269531  -31358.88867    350.369812
    8839           0     -1269.703613  -2821.849121  -31358.89062    313.733429
    8840           0      -920.383423  -2954.297852  -31358.89062    279.697449
    8841           0      -557.648682  -3043.683594  -31358.89062    252.122650
    8842           0      -186.788879  -3088.704102  -31358.89062    232.647598
    8843           0     -2821.431641  -1270.631348  -30983.33398    280.934784
    8844           0     -2647.741943  -1601.387939  -30983.33398    304.350342
    8845           0     -2435.456787  -1908.803101  -30983.33398    347.079407
    8846           0     -2187.672852  -2188.394287  -30983.33398    373.872955
    8847           0     -1907.999756  -2436.086426  -30983.33398    368.191162
    8848           0     -1600.515625  -2648.269531  -30983.33398    341.316956
    8849           0     -1269.703735  -2821.849121  -30983.33398    307.414764
    8850           0      -920.383484  -2954.297852  -30983.33398    275.312469
    8851           0      -557.648743  -3043.683594  -30983.33398    249.160568
    8852           0      -186.788940  -3088.704102  -30983.33398    230.473953
    8853           0     -2821.431641  -1270.631348  -30607.77734    276.061768
    8854           0     -2647.741943  -1601.387939  -30607.77734    289.874481
    8855           0     -2435.457031  -1908.802979  -30607.77734    326.541504
    8856           0     -2187.672852  -2188.394043  -30607.77734    355.872284
    8857           0     -1907.999878  -2436.086182  -30607.77734    355.134674
    8858           0     -1600.515869  -2648.269287  -30607.77734    332.268280
    8859           0     -1269.703857  -2821.849121  -30607.77734    301.120087
    8860           0      -920.383606  -2954.297852  -30607.77734    271.004791
    8861           0      -557.648804  -3043.683594  -30607.77734    246.229370
    8862           0      -186.788940  -3088.704102  -30607.77734    228.345764
    8863           0     -2821.431641  -1270.631348  -30232.22265    272.066864
    8864           0     -2647.741943  -1601.387939  -30232.22265    277.977142
    8865           0     -2435.457031  -1908.802979  -30232.22265    306.941101
    8866           0     -2187.672852  -2188.394043  -30232.22265    337.929657
    8867           0     -1907.999878  -2436.086182  -30232.22265    341.956390
    8868           0     -1600.515869  -2648.269287  -30232.22265    323.171875
    8869           0     -1269.703979  -2821.849121  -30232.22265    294.906219
    8870           0      -920.383667  -2954.297607  -30232.22265    266.769562
    8871           0      -557.648865  -3043.683350  -30232.22265    243.375824
    8872           0      -186.788940  -3088.704102  -30232.22265    226.263504
    8873           0     -2821.431641  -1270.631348  -29856.66796    267.758667
    8874           0     -2647.741943  -1601.387939  -29856.66796    267.908081
    8875           0     -2435.457031  -1908.802979  -29856.66796    288.844910
    8876           0     -2187.672852  -2188.394043  -29856.66796    320.165497
    8877           0     -1908.000000  -2436.086182  -29856.66796    328.632294
    8878           0     -1600.515991  -2648.269287  -29856.66796    314.039795
    8879           0     -1269.704102  -2821.849121  -29856.66796    288.727417
    8880           0      -920.383667  -2954.297607  -29856.66796    262.621704
    8881           0      -557.648865  -3043.683350  -29856.66796    240.581711
    8882           0      -186.788940  -3088.704102  -29856.66796    224.234894
    8883           0     -2821.431641  -1270.631348  -29481.10937    263.498962
    8884           0     -2647.741943  -1601.387817  -29481.10937    259.678986
    8885           0     -2435.457031  -1908.802979  -29481.10937    272.005096
    8886           0     -2187.672852  -2188.394043  -29481.10937    302.678894
    8887           0     -1908.000000  -2436.085938  -29481.10937    315.200439
    8888           0     -1600.516113  -2648.269287  -29481.10937    304.829163
    8889           0     -1269.704102  -2821.849121  -29481.10937    282.598663
    8890           0      -920.383728  -2954.297607  -29481.10937    258.545441
    8891           0      -557.648926  -3043.683350  -29481.10937    237.862961
    8892           0      -186.788940  -3088.704102  -29481.10937    222.255035
    8893           0     -2821.431641  -1270.631348  -29105.55468    258.830627
    8894           0     -2647.742188  -1601.387817  -29105.55468    252.894409
    8895           0     -2435.457031  -1908.802979  -29105.55468    256.747009
    8896           0     -2187.672852  -2188.394043  -29105.55468    285.537201
    8897           0     -1908.000000  -2436.085938  -29105.55468    301.670563
    8898           0     -1600.516113  -2648.269043  -29105.55468    295.544922
    8899           0     -1269.704102  -2821.849121  -29105.55468    276.485809
    8900           0      -920.383789  -2954.297607  -29105.55468    254.549500
    8901           0      -557.648987  -3043.683350  -29105.55468    235.210388
    8902           0      -186.788940  -3088.704102  -29105.55468    220.332153
    8903           0     -2821.431641  -1270.631348  -28729.99804    253.919113
    8904           0     -2647.742188  -1601.387817  -28730.00000    247.357529
    8905           0     -2435.457031  -1908.802856  -28730.00000    242.932541
    8906           0     -2187.672852  -2188.394043  -28730.00000    268.871948
    8907           0     -1908.000244  -2436.085938  -28729.99804    288.092163
    8908           0     -1600.516113  -2648.269043  -28729.99804    286.167664
    8909           0     -1269.704102  -2821.848877  -28729.99804    270.388672
    8910           0      -920.383850  -2954.297607  -28729.99804    250.617462
    8911           0      -557.648987  -3043.683350  -28729.99804    232.632111
    8912           0      -186.788940  -3088.704102  -28729.99804    218.463623
    8913           0     -2821.431641  -1270.631348  -28354.44335    248.620255
    8914           0     -2647.742188  -1601.387817  -28354.44335    242.799683
    8915           0     -2435.457031  -1908.802734  -28354.44335    230.704880
    8916           0     -2187.673096  -2188.394043  -28354.44140    252.736237
    8917           0     -1908.000244  -2436.085938  -28354.44140    274.502777
    8918           0     -1600.516113  -2648.269043  -28354.44140    276.709564
    8919           0     -1269.704224  -2821.848877  -28354.44140    264.283203
    8920           0      -920.383972  -2954.297607  -28354.44140    246.748917
    8921           0      -557.649048  -3043.683350  -28354.43945    230.121201
    8922           0      -186.788940  -3088.704102  -28354.44140    216.655548
    8923           0     -2821.431641  -1270.631348  -27978.88867    243.047821
    8924           0     -2647.742188  -1601.387817  -27978.89062    239.023438
    8925           0     -2435.457031  -1908.802734  -27978.89062    219.965942
    8926           0     -2187.673096  -2188.394043  -27978.89062    237.251816
    8927           0     -1908.000244  -2436.085938  -27978.88671    260.953552
    8928           0     -1600.516113  -2648.269043  -27978.88671    267.171509
    8929           0     -1269.704346  -2821.848877  -27978.88671    258.166382
    8930           0      -920.384033  -2954.297607  -27978.88671    242.928070
    8931           0      -557.649109  -3043.683350  -27978.88671    227.680573
    8932           0      -186.788940  -3088.704102  -27978.88671    214.907227
    8933           0     -2821.431641  -1270.631348  -27603.33398    237.187042
    8934           0     -2647.742188  -1601.387695  -27603.33398    235.844208
    8935           0     -2435.457031  -1908.802734  -27603.33398    210.739502
    8936           0     -2187.673096  -2188.393799  -27603.33398    222.469681
    8937           0     -1908.000244  -2436.085938  -27603.33398    247.495331
    8938           0     -1600.516357  -2648.269043  -27603.33398    257.573242
    8939           0     -1269.704346  -2821.848877  -27603.33398    252.024750
    8940           0      -920.384033  -2954.297607  -27603.33593    239.147476
    8941           0      -557.649109  -3043.683350  -27603.33593    225.301468
    8942           0      -186.788940  -3088.704102  -27603.33593    213.222275
    8943           0     -2821.431641  -1270.631226  -27227.77734    231.129120
    8944           0     -2647.742188  -1601.387695  -27227.77734    233.117065
    8945           0     -2435.457031  -1908.802734  -27227.77734    202.922974
    8946           0     -2187.673096  -2188.393799  -27227.77734    208.490112
    8947           0     -1908.000366  -2436.085938  -27227.77734    234.177338
    8948           0     -1600.516479  -2648.269043  -27227.77734    247.929306
    8949           0     -1269.704346  -2821.848877  -27227.77929    245.858856
    8950           0      -920.384094  -2954.297607  -27227.77929    235.394119
    8951           0      -557.649170  -3043.683350  -27227.77929    222.982254
    8952           0      -186.788940  -3088.704102  -27227.77929    211.600861
    8953           0     -2821.431641  -1270.631226  -26852.22265    224.905807
    8954           0     -2647.742188  -1601.387695  -26852.22265    230.724411
    8955           0     -2435.457031  -1908.802734  -26852.22265    196.461823
    8956           0     -2187.673340  -2188.393799  -26852.22265    195.362457
    8957           0     -1908.000488  -2436.085938  -26852.22265    221.052567
    8958           0     -1600.516479  -2648.269043  -26852.22265    238.264542
    8959           0     -1269.704468  -2821.848877  -26852.22265    239.663696
    8960           0      -920.384155  -2954.297607  -26852.22265    231.659210
    8961           0      -557.649231  -3043.683350  -26852.22265    220.713531
    8962           0      -186.788940  -3088.704102  -26852.22265    210.042953
    8963           0     -2821.431641  -1270.631226  -26476.66796    218.588455
    8964           0     -2647.742188  -1601.387695  -26476.66796    228.574707
    8965           0     -2435.457031  -1908.802734  -26476.66796    191.234650
    8966           0     -2187.673340  -2188.393799  -26476.66796    183.164749
    8967           0     -1908.000488  -2436.085938  -26476.66796    208.165573
    8968           0     -1600.516479  -2648.269043  -26476.66796    228.601776
    8969           0     -1269.704468  -2821.848877  -26476.66796    233.443466
    8970           0      -920.384155  -2954.297607  -26476.66796    227.930756
    8971           0      -557.649292  -3043.683350  -26476.66796    218.487823
    8972           0      -186.789001  -3088.704102  -26476.66796    208.545517
    8973           0     -2821.431641  -1270.631226  -26101.11132    212.220764
    8974           0     -2647.742188  -1601.387695  -26101.10937    226.600098
    8975           0     -2435.457275  -1908.802612  -26101.10937    187.141769
    8976           0     -2187.673340  -2188.393555  -26101.10937    171.944031
    8977           0     -1908.000488  -2436.085693  -26101.10937    195.569046
    8978           0     -1600.516479  -2648.269043  -26101.11132    218.969894
    8979           0     -1269.704468  -2821.848877  -26101.11132    227.202759
    8980           0      -920.384277  -2954.297607  -26101.11132    224.204437
    8981           0      -557.649414  -3043.683350  -26101.11132    216.297028
    8982           0      -186.789063  -3088.704102  -26101.11132    207.105652
    8983           0     -2821.431641  -1270.631226  -25725.55468    205.855743
    8984           0     -2647.742188  -1601.387695  -25725.55664    224.749451
    8985           0     -2435.457275  -1908.802490  -25725.55664    184.049774
    8986           0     -2187.673340  -2188.393555  -25725.55664    161.757904
    8987           0     -1908.000732  -2436.085449  -25725.55664    183.303146
    8988           0     -1600.516602  -2648.269043  -25725.55859    209.395813
    8989           0     -1269.704468  -2821.848633  -25725.55859    220.950760
    8990           0      -920.384277  -2954.297607  -25725.55859    220.471008
    8991           0      -557.649414  -3043.683350  -25725.55859    214.131409
    8992           0      -186.789063  -3088.704102  -25725.55664    205.717804
    8993           0     -2821.431641  -1270.631226  -25349.99804    199.530640
    8994           0     -2647.742188  -1601.387695  -25350.00000    222.986832
    8995           0     -2435.457275  -1908.802490  -25350.00000    181.838959
    8996           0     -2187.673340  -2188.393555  -25350.00000    152.638214
    8997           0     -1908.000732  -2436.085449  -25350.00000    171.412201
    8998           0     -1600.516602  -2648.268799  -25350.00000    199.907333
    8999           0     -1269.704590  -2821.848633  -25350.00000    214.695801
    9000           0      -920.384277  -2954.297607  -25350.00000    216.727524
    9001           0      -557.649414  -3043.683350  -25350.00000    211.981537
    9002           0      -186.789063  -3088.704102  -25350.00000    204.374054
    9003           0     -2821.431641  -1270.631104  -24974.44335    193.283325
    9004           0     -2647.742188  -1601.387695  -24974.44335    221.287628
    9005           0     -2435.457520  -1908.802490  -24974.44140    180.380203
    9006           0     -2187.673340  -2188.393555  -24974.44140    144.618637
    9007           0     -1908.000732  -2436.085449  -24974.43945    159.933365
    9008           0     -1600.516846  -2648.268799  -24974.43945    190.532974
    9009           0     -1269.704712  -2821.848633  -24974.43945    208.450684
    9010           0      -920.384277  -2954.297363  -24974.43945    212.969925
    9011           0      -557.649414  -3043.683350  -24974.43945    209.838303
    9012           0      -186.789063  -3088.704102  -24974.44140    203.064972
    9013           0     -2821.431641  -1270.631104  -24598.89062    187.141479
    9014           0     -2647.742188  -1601.387451  -24598.89257    219.635818
    9015           0     -2435.457520  -1908.802490  -24598.89257    179.557556
    9016           0     -2187.673340  -2188.393555  -24598.89257    137.707413
    9017           0     -1908.000732  -2436.085449  -24598.89062    148.906342
    9018           0     -1600.516846  -2648.268799  -24598.89062    181.300201
    9019           0     -1269.704834  -2821.848633  -24598.89062    202.228088
    9020           0      -920.384399  -2954.297363  -24598.89062    209.197800
    9021           0      -557.649475  -3043.683105  -24598.89062    207.692551
    9022           0      -186.789063  -3088.704102  -24598.88867    201.779419
    9023           0     -2821.431641  -1270.631104  -24223.33398    181.129898
    9024           0     -2647.742188  -1601.387451  -24223.33593    218.022003
    9025           0     -2435.457520  -1908.802490  -24223.33593    179.258209
    9026           0     -2187.673340  -2188.393555  -24223.33593    131.902588
    9027           0     -1908.000732  -2436.085449  -24223.33593    138.364807
    9028           0     -1600.516846  -2648.268799  -24223.33593    172.236679
    9029           0     -1269.704834  -2821.848633  -24223.33593    196.042801
    9030           0      -920.384521  -2954.297363  -24223.33593    205.410782
    9031           0      -557.649536  -3043.683105  -24223.33593    205.535507
    9032           0      -186.789063  -3088.704102  -24223.33398    200.505051
    9033           0     -2821.431641  -1270.631104  -23847.77734    175.266693
    9034           0     -2647.742188  -1601.387451  -23847.77734    216.441437
    9035           0     -2435.457520  -1908.802490  -23847.77734    179.383163
    9036           0     -2187.673584  -2188.393555  -23847.77734    127.175293
    9037           0     -1908.000854  -2436.085449  -23847.77734    128.345184
    9038           0     -1600.516968  -2648.268799  -23847.77734    163.368149
    9039           0     -1269.704834  -2821.848633  -23847.77734    189.910172
    9040           0      -920.384521  -2954.297363  -23847.77734    201.610947
    9041           0      -557.649536  -3043.683105  -23847.77734    203.359116
    9042           0      -186.789063  -3088.704102  -23847.77734    199.227753
    9043           0     -2821.431641  -1270.631104  -23472.22070    169.566666
    9044           0     -2647.742188  -1601.387451  -23472.21875    214.892715
    9045           0     -2435.457520  -1908.802490  -23472.21875    179.842361
    9046           0     -2187.673584  -2188.393311  -23472.21875    123.479240
    9047           0     -1908.000977  -2436.085449  -23472.21875    118.878876
    9048           0     -1600.517090  -2648.268555  -23472.21875    154.720764
    9049           0     -1269.704834  -2821.848633  -23472.21875    183.845947
    9050           0      -920.384521  -2954.297363  -23472.21875    197.800339
    9051           0      -557.649597  -3043.683105  -23472.21875    201.154755
    9052           0      -186.789063  -3088.704102  -23472.21875    197.933395
    9053           0     -2821.431641  -1270.631104  -23096.66406    164.039413
    9054           0     -2647.742188  -1601.387451  -23096.66210    213.376419
    9055           0     -2435.457520  -1908.802368  -23096.66210    180.557785
    9056           0     -2187.673584  -2188.393311  -23096.66015    120.742218
    9057           0     -1908.000977  -2436.085449  -23096.66015    110.000183
    9058           0     -1600.517090  -2648.268555  -23096.66015    146.317352
    9059           0     -1269.704834  -2821.848633  -23096.66015    177.866409
    9060           0      -920.384644  -2954.297363  -23096.65820    193.983322
    9061           0      -557.649658  -3043.683105  -23096.65820    198.915619
    9062           0      -186.789063  -3088.704102  -23096.66210    196.606323
    9063           0     -2821.431641  -1270.631104  -22721.10937    158.694000
    9064           0     -2647.742188  -1601.387451  -22721.10546    211.895355
    9065           0     -2435.457520  -1908.802246  -22721.10546    181.462158
    9066           0     -2187.673828  -2188.393311  -22721.10546    118.877625
    9067           0     -1908.000977  -2436.085449  -22721.10546    101.741142
    9068           0     -1600.517090  -2648.268555  -22721.10546    138.184570
    9069           0     -1269.705078  -2821.848633  -22721.10546    171.988968
    9070           0      -920.384644  -2954.297363  -22721.10546    190.163330
    9071           0      -557.649658  -3043.683105  -22721.10546    196.633163
    9072           0      -186.789063  -3088.704102  -22721.10742    195.231537
    9073           0     -2821.431641  -1270.631104  -22345.55468    153.534622
    9074           0     -2647.742188  -1601.387451  -22345.55078    210.452377
    9075           0     -2435.457520  -1908.802124  -22345.55078    182.497162
    9076           0     -2187.673828  -2188.393311  -22345.55078    117.780602
    9077           0     -1908.000977  -2436.085449  -22345.55078     94.136124
    9078           0     -1600.517334  -2648.268555  -22345.55078    130.341934
    9079           0     -1269.705078  -2821.848633  -22345.55078    166.230957
    9080           0      -920.384766  -2954.297363  -22345.55078    186.347092
    9081           0      -557.649719  -3043.683105  -22345.55078    194.301895
    9082           0      -186.789063  -3088.704102  -22345.55273    193.793701
    9083           0     -2821.431641  -1270.631104  -21970.00000    148.564087
    9084           0     -2647.742188  -1601.387451  -21969.99804    209.050842
    9085           0     -2435.457520  -1908.802124  -21969.99804    183.614456
    9086           0     -2187.673828  -2188.393066  -21969.99804    117.340752
    9087           0     -1908.001221  -2436.085449  -21969.99609     87.211098
    9088           0     -1600.517334  -2648.268555  -21969.99609    122.813957
    9089           0     -1269.705078  -2821.848633  -21969.99609    160.607437
    9090           0      -920.384888  -2954.297363  -21969.99609    182.538666
    9091           0      -557.649780  -3043.683105  -21969.99414    191.914703
    9092           0      -186.789063  -3088.704102  -21969.99609    192.276917
    9093           0     -2821.431641  -1270.631104  -21594.44531    143.784058
    9094           0     -2647.742188  -1601.387451  -21594.44726    207.694351
    9095           0     -2435.457520  -1908.802124  -21594.44726    184.771622
    9096           0     -2187.673828  -2188.393066  -21594.44531    117.443153
    9097           0     -1908.001221  -2436.085205  -21594.44531     81.000343
    9098           0     -1600.517334  -2648.268555  -21594.44726    115.617867
    9099           0     -1269.705200  -2821.848633  -21594.44531    155.134384
    9100           0      -920.384888  -2954.297363  -21594.44531    178.743530
    9101           0      -557.649841  -3043.683105  -21594.44531    189.464218
    9102           0      -186.789124  -3088.704102  -21594.44335    190.665573
    9103           0     -2821.431641  -1270.631104  -21218.88867    139.194916
    9104           0     -2647.742188  -1601.387451  -21218.88867    206.386108
    9105           0     -2435.457520  -1908.802124  -21218.88867    185.935089
    9106           0     -2187.673828  -2188.393066  -21218.88867    117.976662
    9107           0     -1908.001221  -2436.084961  -21218.88867     75.516953
    9108           0     -1600.517334  -2648.268311  -21218.88867    108.777657
    9109           0     -1269.705322  -2821.848389  -21218.88867    149.827896
    9110           0      -920.384888  -2954.297363  -21218.88867    174.968597
    9111           0      -557.649902  -3043.683105  -21218.88867    186.946487
    9112           0      -186.789169  -3088.704102  -21218.88867    188.944702
    9113           0     -2821.431641  -1270.631104  -20843.33398    134.796555
    9114           0     -2647.742188  -1601.387451  -20843.33398    205.130356
    9115           0     -2435.457520  -1908.802124  -20843.33398    187.070572
    9116           0     -2187.673828  -2188.393066  -20843.33398    118.839424
    9117           0     -1908.001221  -2436.084961  -20843.33398     70.790512
    9118           0     -1600.517334  -2648.268311  -20843.33398    102.307945
    9119           0     -1269.705322  -2821.848389  -20843.33398    144.700363
    9120           0      -920.385010  -2954.297363  -20843.33398    171.219009
    9121           0      -557.649963  -3043.683105  -20843.33398    184.353210
    9122           0      -186.789169  -3088.704102  -20843.33398    187.100800
    9123           0     -2821.431641  -1270.631104  -20467.77929    130.588028
    9124           0     -2647.742432  -1601.387207  -20467.78125    203.929153
    9125           0     -2435.457764  -1908.802124  -20467.78125    188.158203
    9126           0     -2187.673828  -2188.393066  -20467.78125    119.931412
    9127           0     -1908.001343  -2436.084961  -20467.78125     66.796875
    9128           0     -1600.517578  -2648.268311  -20467.78125     96.227570
    9129           0     -1269.705322  -2821.848389  -20467.78125    139.768936
    9130           0      -920.385010  -2954.297363  -20467.78125    167.500000
    9131           0      -557.649963  -3043.683105  -20467.78125    181.680450
    9132           0      -186.789169  -3088.704102  -20467.77929    185.119614
    9133           0     -2821.431641  -1270.631104  -20092.22070    126.571030
    9134           0     -2647.742432  -1601.387207  -20092.21875    202.783813
    9135           0     -2435.457764  -1908.802002  -20092.21875    189.180603
    9136           0     -2187.674072  -2188.393066  -20092.21875    121.157959
    9137           0     -1908.001465  -2436.084961  -20092.21875     63.547405
    9138           0     -1600.517578  -2648.268311  -20092.21875     90.551353
    9139           0     -1269.705444  -2821.848389  -20092.21875    135.046631
    9140           0      -920.385132  -2954.297363  -20092.21875    163.815292
    9141           0      -557.650024  -3043.682861  -20092.21875    178.922195
    9142           0      -186.789169  -3088.704102  -20092.22070    182.988403
    9143           0     -2821.431641  -1270.631104  -19716.66601    122.742271
    9144           0     -2647.742432  -1601.387207  -19716.66601    201.699570
    9145           0     -2435.457764  -1908.802002  -19716.66601    190.109879
    9146           0     -2187.674072  -2188.392822  -19716.66601    122.464485
    9147           0     -1908.001465  -2436.084961  -19716.66601     60.989704
    9148           0     -1600.517700  -2648.268311  -19716.66796     85.297989
    9149           0     -1269.705566  -2821.848389  -19716.66796    130.540955
    9150           0      -920.385132  -2954.297363  -19716.66796    160.170486
    9151           0      -557.650085  -3043.682861  -19716.66796    176.072906
    9152           0      -186.789169  -3088.704102  -19716.66796    180.695099
    9153           0     -2821.431641  -1270.631104  -19341.11328    119.107689
    9154           0     -2647.742432  -1601.387207  -19341.11328    200.673355
    9155           0     -2435.457764  -1908.802002  -19341.11328    190.936462
    9156           0     -2187.674072  -2188.392822  -19341.11328    123.767578
    9157           0     -1908.001465  -2436.084961  -19341.11523     59.069721
    9158           0     -1600.517822  -2648.268311  -19341.11523     80.478897
    9159           0     -1269.705566  -2821.848389  -19341.11523    126.264542
    9160           0      -920.385132  -2954.297363  -19341.11523    156.568710
    9161           0      -557.650085  -3043.682861  -19341.11523    173.129013
    9162           0      -186.789169  -3088.704102  -19341.11328    178.228790
    9163           0     -2821.431641  -1270.631104  -18965.55468    115.669289
    9164           0     -2647.742432  -1601.387207  -18965.55468    199.704330
    9165           0     -2435.457764  -1908.802002  -18965.55468    191.646179
    9166           0     -2187.674072  -2188.392822  -18965.55468    125.023415
    9167           0     -1908.001465  -2436.084961  -18965.55468     57.711071
    9168           0     -1600.517822  -2648.268066  -18965.55468     76.101799
    9169           0     -1269.705566  -2821.848389  -18965.55468    122.222702
    9170           0      -920.385193  -2954.297119  -18965.55468    153.013718
    9171           0      -557.650085  -3043.682861  -18965.55468    170.085541
    9172           0      -186.789169  -3088.704102  -18965.55468    175.579590
    9173           0     -2821.431641  -1270.631104  -18590.00000    112.430054
    9174           0     -2647.742432  -1601.387085  -18590.00000    198.793594
    9175           0     -2435.458008  -1908.802002  -18590.00000    192.227615
    9176           0     -2187.674072  -2188.392822  -18590.00000    126.178612
    9177           0     -1908.001465  -2436.084961  -18590.00000     56.825203
    9178           0     -1600.517822  -2648.268066  -18590.00000     72.175652
    9179           0     -1269.705566  -2821.848145  -18590.00000    118.420570
    9180           0      -920.385315  -2954.297119  -18590.00000    149.507462
    9181           0      -557.650146  -3043.682861  -18590.00000    166.938309
    9182           0      -186.789169  -3088.704102  -18590.00000    172.738525
    9183           0     -2821.431641  -1270.631104  -18214.44531    109.396751
    9184           0     -2647.742432  -1601.387085  -18214.44531    197.939529
    9185           0     -2435.458008  -1908.801758  -18214.44531    192.668655
    9186           0     -2187.674316  -2188.392822  -18214.44531    127.195724
    9187           0     -1908.001709  -2436.084717  -18214.44531     56.311954
    9188           0     -1600.517944  -2648.268066  -18214.44531     68.700623
    9189           0     -1269.705688  -2821.848145  -18214.44531    114.862419
    9190           0      -920.385376  -2954.297119  -18214.44531    146.050674
    9191           0      -557.650208  -3043.682861  -18214.44531    163.684204
    9192           0      -186.789169  -3088.704102  -18214.44531    169.697784
    9193           0     -2821.431641  -1270.631104  -17838.88867    106.576530
    9194           0     -2647.742432  -1601.387085  -17838.88671    197.140778
    9195           0     -2435.458008  -1908.801758  -17838.88671    192.959808
    9196           0     -2187.674316  -2188.392578  -17838.88671    128.037903
    9197           0     -1908.001709  -2436.084473  -17838.88671     56.074383
    9198           0     -1600.518066  -2648.268066  -17838.88671     65.674324
    9199           0     -1269.705688  -2821.848145  -17838.88671    111.548561
    9200           0      -920.385376  -2954.297119  -17838.88671    142.644440
    9201           0      -557.650208  -3043.682861  -17838.88671    160.319351
    9202           0      -186.789169  -3088.704102  -17838.88867    166.451385
    9203           0     -2821.431641  -1270.631104  -17463.33007    103.979828
    9204           0     -2647.742432  -1601.387085  -17463.33007    196.395065
    9205           0     -2435.458008  -1908.801758  -17463.33203    193.090744
    9206           0     -2187.674316  -2188.392578  -17463.33203    128.676376
    9207           0     -1908.001709  -2436.084473  -17463.33203     56.016861
    9208           0     -1600.518066  -2648.268066  -17463.33203     63.086872
    9209           0     -1269.705811  -2821.848145  -17463.33398    108.478256
    9210           0      -920.385437  -2954.297119  -17463.33398    139.287308
    9211           0      -557.650269  -3043.682861  -17463.33593    156.841400
    9212           0      -186.789169  -3088.704102  -17463.33398    162.994110
    9213           0     -2821.431641  -1270.630981  -17087.77539    101.618309
    9214           0     -2647.742432  -1601.387085  -17087.77539    195.699432
    9215           0     -2435.458008  -1908.801758  -17087.77539    193.052307
    9216           0     -2187.674316  -2188.392578  -17087.77734    129.084396
    9217           0     -1908.001831  -2436.084473  -17087.77734     56.055138
    9218           0     -1600.518066  -2648.268066  -17087.77734     60.922920
    9219           0     -1269.705811  -2821.848145  -17087.77929    105.646805
    9220           0      -920.385498  -2954.297119  -17087.77929    135.979172
    9221           0      -557.650269  -3043.682861  -17087.78125    153.247589
    9222           0      -186.789169  -3088.704102  -17087.77929    159.322464
    9223           0     -2821.431641  -1270.630981  -16712.22070     99.506432
    9224           0     -2647.742432  -1601.387085  -16712.21875    195.050415
    9225           0     -2435.458008  -1908.801758  -16712.22070    192.834869
    9226           0     -2187.674316  -2188.392578  -16712.22265    129.239761
    9227           0     -1908.001953  -2436.084473  -16712.22265     56.113598
    9228           0     -1600.518066  -2648.268066  -16712.22265     59.160740
    9229           0     -1269.705811  -2821.848145  -16712.22265    103.047966
    9230           0      -920.385559  -2954.297119  -16712.22460    132.715012
    9231           0      -557.650330  -3043.682861  -16712.22656    149.536392
    9232           0      -186.789215  -3088.704102  -16712.22460    155.434006
    9233           0     -2821.431641  -1270.630981  -16336.66601     97.660049
    9234           0     -2647.742432  -1601.386963  -16336.66406    194.443436
    9235           0     -2435.458008  -1908.801758  -16336.66601    192.428864
    9236           0     -2187.674316  -2188.392578  -16336.66601    129.121918
    9237           0     -1908.001953  -2436.084473  -16336.66796     56.129650
    9238           0     -1600.518311  -2648.268066  -16336.66796     57.772484
    9239           0     -1269.706055  -2821.848145  -16336.66796    100.672485
    9240           0      -920.385681  -2954.297119  -16336.66992    129.494934
    9241           0      -557.650452  -3043.682861  -16336.66992    145.705017
    9242           0      -186.789276  -3088.704102  -16336.66796    151.328552
    9243           0     -2821.431641  -1270.630981  -15961.11230     96.097610
    9244           0     -2647.742676  -1601.386963  -15961.11328    193.873947
    9245           0     -2435.458008  -1908.801758  -15961.11132    191.824753
    9246           0     -2187.674316  -2188.392578  -15961.11132    128.713562
    9247           0     -1908.001953  -2436.084473  -15961.11035     56.050182
    9248           0     -1600.518311  -2648.267822  -15961.10937     56.727539
    9249           0     -1269.706055  -2821.848145  -15961.10937     98.508240
    9250           0      -920.385742  -2954.297119  -15961.10742    126.309891
    9251           0      -557.650513  -3043.682861  -15961.10742    141.756470
    9252           0      -186.789276  -3088.704102  -15961.10839    147.007324
    9253           0     -2821.431641  -1270.630981  -15585.55566     94.838371
    9254           0     -2647.742676  -1601.386963  -15585.55566    193.335648
    9255           0     -2435.458008  -1908.801758  -15585.55468    191.012314
    9256           0     -2187.674316  -2188.392578  -15585.55273    127.998245
    9257           0     -1908.001953  -2436.084473  -15585.55273     55.834454
    9258           0     -1600.518311  -2648.267822  -15585.55175     55.990639
    9259           0     -1269.706055  -2821.848145  -15585.55078     96.541557
    9260           0      -920.385742  -2954.297119  -15585.55078    123.161346
    9261           0      -557.650513  -3043.682861  -15585.54882    137.685150
    9262           0      -186.789276  -3088.704102  -15585.55175    142.472443
    9263           0     -2821.431641  -1270.630859  -15209.99902     93.902184
    9264           0     -2647.742676  -1601.386963  -15210.00000    192.822845
    9265           0     -2435.458008  -1908.801514  -15210.00000    189.979782
    9266           0     -2187.674316  -2188.392578  -15210.00000    126.963051
    9267           0     -1908.002197  -2436.084473  -15210.00000     55.447826
    9268           0     -1600.518555  -2648.267578  -15210.00000     55.526875
    9269           0     -1269.706055  -2821.848145  -15210.00000     94.752007
    9270           0      -920.385742  -2954.297119  -15210.00000    120.031624
    9271           0      -557.650574  -3043.682861  -15210.00000    133.495972
    9272           0      -186.789276  -3088.704102  -15209.99902    137.730133
    9273           0     -2821.431641  -1270.630859  -14834.44433     93.309036
    9274           0     -2647.742676  -1601.386963  -14834.44433    192.327469
    9275           0     -2435.458008  -1908.801514  -14834.44433    188.717102
    9276           0     -2187.674805  -2188.392334  -14834.44433    125.592270
    9277           0     -1908.002197  -2436.084473  -14834.44335     54.869385
    9278           0     -1600.518555  -2648.267578  -14834.44335     55.306751
    9279           0     -1269.706177  -2821.848145  -14834.44335     93.131355
    9280           0      -920.385864  -2954.297119  -14834.44335    116.921806
    9281           0      -557.650635  -3043.682861  -14834.44335    129.191132
    9282           0      -186.789276  -3088.704102  -14834.44335    132.783005
    9283           0     -2821.431641  -1270.630859  -14458.88769     93.078896
    9284           0     -2647.742676  -1601.386963  -14458.88769    191.841049
    9285           0     -2435.458008  -1908.801514  -14458.88769    187.213089
    9286           0     -2187.674805  -2188.392334  -14458.88769    123.872131
    9287           0     -1908.002197  -2436.084473  -14458.88671     54.087852
    9288           0     -1600.518555  -2648.267578  -14458.88671     55.286396
    9289           0     -1269.706299  -2821.848145  -14458.88671     91.647873
    9290           0      -920.385925  -2954.297119  -14458.88671    113.825508
    9291           0      -557.650635  -3043.682861  -14458.88671    124.771919
    9292           0      -186.789276  -3088.704102  -14458.88769    127.641106
    9293           0     -2821.431641  -1270.630859  -14083.33593     93.228317
    9294           0     -2647.742676  -1601.386963  -14083.33789    191.354721
    9295           0     -2435.458008  -1908.801514  -14083.33789    185.452896
    9296           0     -2187.674805  -2188.392334  -14083.33593    121.795555
    9297           0     -1908.002197  -2436.084473  -14083.33496     53.088917
    9298           0     -1600.518677  -2648.267578  -14083.33300     55.438709
    9299           0     -1269.706299  -2821.847900  -14083.33300     90.285957
    9300           0      -920.385925  -2954.297119  -14083.33105    110.722870
    9301           0      -557.650635  -3043.682861  -14083.33105    120.237694
    9302           0      -186.789276  -3088.704102  -14083.33105    122.314522
    9303           0     -2821.431641  -1270.630859  -13707.78027     93.772766
    9304           0     -2647.742676  -1601.386841  -13707.78125    190.857925
    9305           0     -2435.458008  -1908.801514  -13707.78027    183.425766
    9306           0     -2187.674805  -2188.392090  -13707.77929    119.347916
    9307           0     -1908.002197  -2436.084473  -13707.77832     51.875847
    9308           0     -1600.518677  -2648.267578  -13707.77734     55.741356
    9309           0     -1269.706299  -2821.847900  -13707.77636     89.029045
    9310           0      -920.385986  -2954.297119  -13707.77539    107.617989
    9311           0      -557.650696  -3043.682861  -13707.77441    115.592888
    9312           0      -186.789276  -3088.704102  -13707.77539    116.811584
    9313           0     -2821.431641  -1270.630859  -13332.22460     94.723862
    9314           0     -2647.742676  -1601.386841  -13332.22656    190.337830
    9315           0     -2435.458008  -1908.801514  -13332.22656    181.116440
    9316           0     -2187.674805  -2188.392090  -13332.22656    116.521393
    9317           0     -1908.002319  -2436.084229  -13332.22656     50.458794
    9318           0     -1600.518799  -2648.267578  -13332.22656     56.168533
    9319           0     -1269.706421  -2821.847900  -13332.22656     87.845535
    9320           0      -920.386047  -2954.296875  -13332.22656    104.494400
    9321           0      -557.650757  -3043.682861  -13332.22656    110.846519
    9322           0      -186.789276  -3088.704102  -13332.22460    111.146255
    9323           0     -2821.431641  -1270.630859  -12956.67382     96.086693
    9324           0     -2647.742676  -1601.386841  -12956.67968    189.781998
    9325           0     -2435.458252  -1908.801514  -12956.67968    178.511566
    9326           0     -2187.674805  -2188.392090  -12956.67968    113.306702
    9327           0     -1908.002441  -2436.083984  -12956.67968     48.854198
    9328           0     -1600.518921  -2648.267578  -12956.67968     56.700665
    9329           0     -1269.706543  -2821.847900  -12956.67968     86.719124
    9330           0      -920.386108  -2954.296875  -12956.67968    101.344574
    9331           0      -557.650757  -3043.682861  -12956.67968    106.001678
    9332           0      -186.789276  -3088.704102  -12956.67382    105.331413
    9333           0     -2821.431641  -1270.630859  -12581.11718     97.866409
    9334           0     -2647.742676  -1601.386719  -12581.12304    189.173813
    9335           0     -2435.458252  -1908.801270  -12581.12304    175.595901
    9336           0     -2187.674805  -2188.392090  -12581.12304    109.697533
    9337           0     -1908.002441  -2436.083984  -12581.12402     47.092743
    9338           0     -1600.518921  -2648.267578  -12581.12500     57.322643
    9339           0     -1269.706543  -2821.847656  -12581.12500     85.623543
    9340           0      -920.386108  -2954.296875  -12581.12500     98.160561
    9341           0      -557.650818  -3043.682861  -12581.12500    101.066284
    9342           0      -186.789276  -3088.704102  -12581.11914     99.384506
    9343           0     -2821.431641  -1270.630859  -12205.56054    100.057121
    9344           0     -2647.742676  -1601.386719  -12205.56445    188.499710
    9345           0     -2435.458252  -1908.801270  -12205.56445    172.352310
    9346           0     -2187.674805  -2188.392090  -12205.56445    105.687508
    9347           0     -1908.002563  -2436.083984  -12205.56640     45.214703
    9348           0     -1600.519043  -2648.267578  -12205.56640     58.020687
    9349           0     -1269.706543  -2821.847656  -12205.56640     84.540161
    9350           0      -920.386230  -2954.296875  -12205.56640     94.933502
    9351           0      -557.650879  -3043.682861  -12205.56640     96.048157
    9352           0      -186.789337  -3088.704102  -12205.56054     93.321465
    9353           0     -2821.431641  -1270.630859  -11830.00000    102.649277
    9354           0     -2647.742676  -1601.386719  -11830.00097    187.738235
    9355           0     -2435.458496  -1908.801270  -11830.00097    168.766418
    9356           0     -2187.674805  -2188.392090  -11830.00097    101.276802
    9357           0     -1908.002563  -2436.083984  -11830.00097     43.282993
    9358           0     -1600.519043  -2648.267578  -11830.00097     58.783764
    9359           0     -1269.706543  -2821.847656  -11830.00097     83.447067
    9360           0      -920.386230  -2954.296875  -11830.00097     91.657707
    9361           0      -557.650940  -3043.682861  -11830.00097     90.958862
    9362           0      -186.789398  -3088.704102  -11830.00000     87.161865
    9363           0     -2821.431641  -1270.630859  -11454.43945    105.632202
    9364           0     -2647.742676  -1601.386719  -11454.43554    186.869980
    9365           0     -2435.458496  -1908.801270  -11454.43554    164.823425
    9366           0     -2187.675049  -2188.392090  -11454.43554     96.461952
    9367           0     -1908.002686  -2436.083984  -11454.43554     41.371437
    9368           0     -1600.519043  -2648.267578  -11454.43457     59.604015
    9369           0     -1269.706543  -2821.847656  -11454.43457     82.325768
    9370           0      -920.386230  -2954.296875  -11454.43457     88.329559
    9371           0      -557.651001  -3043.682861  -11454.43457     85.808617
    9372           0      -186.789398  -3088.704102  -11454.44043     80.926567
    9373           0     -2821.431641  -1270.630859  -11078.88867    108.984612
    9374           0     -2647.742676  -1601.386719  -11078.88867    185.867950
    9375           0     -2435.458496  -1908.801147  -11078.88867    160.503220
    9376           0     -2187.675049  -2188.392090  -11078.88867     91.255196
    9377           0     -1908.002686  -2436.083984  -11078.88867     39.589443
    9378           0     -1600.519165  -2648.267334  -11078.88671     60.466637
    9379           0     -1269.706665  -2821.847656  -11078.88671     81.162285
    9380           0      -920.386353  -2954.296875  -11078.88671     84.942581
    9381           0      -557.651062  -3043.682861  -11078.88671     80.614899
    9382           0      -186.789398  -3088.704102  -11078.88769     74.636757
    9383           0     -2821.431641  -1270.630859  -10703.33203    112.677795
    9384           0     -2647.742676  -1601.386719  -10703.33007    184.722900
    9385           0     -2435.458496  -1908.801147  -10703.33007    155.787125
    9386           0     -2187.675049  -2188.392090  -10703.33007     85.657318
    9387           0     -1908.002930  -2436.083984  -10703.33007     38.071930
    9388           0     -1600.519287  -2648.267090  -10703.32910     61.371265
    9389           0     -1269.706787  -2821.847656  -10703.32910     79.939110
    9390           0      -920.386475  -2954.296875  -10703.32910     81.498146
    9391           0      -557.651062  -3043.682861  -10703.32910     75.392998
    9392           0      -186.789398  -3088.704102  -10703.33105     68.317429
    9393           0     -2821.431641  -1270.630859  -10327.77539    116.682068
    9394           0     -2647.742676  -1601.386597  -10327.77246    183.397614
    9395           0     -2435.458496  -1908.801025  -10327.77246    150.665924
    9396           0     -2187.675293  -2188.391846  -10327.77246     79.697609
    9397           0     -1908.002930  -2436.083984  -10327.77246     36.934734
    9398           0     -1600.519287  -2648.267090  -10327.77246     62.320808
    9399           0     -1269.706787  -2821.847656  -10327.77246     78.635490
    9400           0      -920.386475  -2954.296875  -10327.77246     78.004463
    9401           0      -557.651123  -3043.682861  -10327.77246     70.164024
    9402           0      -186.789398  -3088.704102  -10327.77539     61.996269
    9403           0     -2821.431641  -1270.630859  -9952.218750    120.968948
    9404           0     -2647.742676  -1601.386597  -9952.215820    181.844391
    9405           0     -2435.458496  -1908.801025  -9952.215820    145.135452
    9406           0     -2187.675293  -2188.391846  -9952.215820     73.420662
    9407           0     -1908.002930  -2436.083984  -9952.215820     36.374435
    9408           0     -1600.519287  -2648.267090  -9952.215820     63.283401
    9409           0     -1269.706787  -2821.847656  -9952.215820     77.258240
    9410           0      -920.386475  -2954.296875  -9952.215820     74.458145
    9411           0      -557.651184  -3043.682861  -9952.215820     64.956985
    9412           0      -186.789398  -3088.704102  -9952.218750     55.703587
    9413           0     -2821.431641  -1270.630859  -9576.661133    125.488655
    9414           0     -2647.742676  -1601.386475  -9576.657227    180.046387
    9415           0     -2435.458496  -1908.801025  -9576.657227    139.180939
    9416           0     -2187.675293  -2188.391846  -9576.657227     66.882790
    9417           0     -1908.002930  -2436.083740  -9576.658203     36.528069
    9418           0     -1600.519409  -2648.267090  -9576.659180     64.270027
    9419           0     -1269.706909  -2821.847656  -9576.659180     75.780464
    9420           0      -920.386475  -2954.296875  -9576.659180     70.880669
    9421           0      -557.651184  -3043.682861  -9576.659180     59.801735
    9422           0      -186.789398  -3088.704102  -9576.662109     49.478508
    9423           0     -2821.431641  -1270.630859  -9201.110352    130.191879
    9424           0     -2647.742676  -1601.386475  -9201.109375    177.966232
    9425           0     -2435.458496  -1908.801025  -9201.109375    132.802414
    9426           0     -2187.675293  -2188.391602  -9201.109375     60.179203
    9427           0     -1908.002930  -2436.083740  -9201.111328     37.495998
    9428           0     -1600.519409  -2648.267090  -9201.112305     65.268082
    9429           0     -1269.706909  -2821.847656  -9201.112305     74.215385
    9430           0      -920.386597  -2954.296875  -9201.112305     67.284828
    9431           0      -557.651245  -3043.682861  -9201.112305     54.738029
    9432           0      -186.789398  -3088.704102  -9201.112305     43.370411
    9433           0     -2821.431641  -1270.630859  -8825.558594    135.025085
    9434           0     -2647.742676  -1601.386475  -8825.562500    175.565079
    9435           0     -2435.458496  -1908.801025  -8825.562500    126.010880
    9436           0     -2187.675293  -2188.391602  -8825.562500     53.468346
    9437           0     -1908.003052  -2436.083740  -8825.563477     39.317635
    9438           0     -1600.519531  -2648.267090  -8825.563477     66.257668
    9439           0     -1269.707031  -2821.847656  -8825.563477     72.554680
    9440           0      -920.386719  -2954.296875  -8825.563477     63.691132
    9441           0      -557.651306  -3043.682861  -8825.563477     49.821545
    9442           0      -186.789398  -3088.704102  -8825.559570     37.448658
    9443           0     -2821.431641  -1270.630859  -8450.000977    139.923447
    9444           0     -2647.742676  -1601.386475  -8450.000977    172.801315
    9445           0     -2435.458496  -1908.801025  -8450.000977    118.832024
    9446           0     -2187.675293  -2188.391602  -8450.000977     47.013577
    9447           0     -1908.003174  -2436.083496  -8450.000977     41.976265
    9448           0     -1600.519653  -2648.267090  -8450.000977     67.245895
    9449           0     -1269.707153  -2821.847656  -8450.000977     70.795052
    9450           0      -920.386841  -2954.296875  -8450.000977     60.119682
    9451           0      -557.651306  -3043.682861  -8450.000977     45.121353
    9452           0      -186.789398  -3088.704102  -8450.000977     31.817488
    9453           0     -2821.431641  -1270.630859  -8074.442383    144.810822
    9454           0     -2647.742676  -1601.386475  -8074.439453    169.637543
    9455           0     -2435.458496  -1908.800903  -8074.439453    111.308411
    9456           0     -2187.675293  -2188.391602  -8074.439453     41.268242
    9457           0     -1908.003174  -2436.083496  -8074.438477     45.378845
    9458           0     -1600.519775  -2648.267090  -8074.438477     68.215889
    9459           0     -1269.707153  -2821.847656  -8074.438477     68.959816
    9460           0      -920.386841  -2954.296875  -8074.438477     56.615093
    9461           0      -557.651306  -3043.682861  -8074.438477     40.722000
    9462           0      -186.789398  -3088.704102  -8074.442383     26.654888
    9463           0     -2821.431641  -1270.630737  -7698.885254    149.606552
    9464           0     -2647.742676  -1601.386475  -7698.881836    166.029877
    9465           0     -2435.458496  -1908.800903  -7698.883789    103.527901
    9466           0     -2187.675293  -2188.391602  -7698.883789     36.926666
    9467           0     -1908.003174  -2436.083496  -7698.885742     49.415447
    9468           0     -1600.519775  -2648.267090  -7698.886719     69.154564
    9469           0     -1269.707275  -2821.847656  -7698.887695     67.046593
    9470           0      -920.386841  -2954.296875  -7698.888672     53.214352
    9471           0      -557.651367  -3043.682861  -7698.890137     36.747967
    9472           0      -186.789398  -3088.704102  -7698.890137     22.259151
    9473           0     -2821.431641  -1270.630737  -7323.327637    154.210739
    9474           0     -2647.742920  -1601.386475  -7323.323242    161.945862
    9475           0     -2435.458740  -1908.800903  -7323.324219     95.623100
    9476           0     -2187.675537  -2188.391602  -7323.325195     34.905693
    9477           0     -1908.003174  -2436.083496  -7323.327148     53.972694
    9478           0     -1600.519775  -2648.267090  -7323.329102     70.065796
    9479           0     -1269.707275  -2821.847656  -7323.330078     65.072266
    9480           0      -920.386841  -2954.296875  -7323.331055     49.956459
    9481           0      -557.651428  -3043.682861  -7323.332031     33.354816
    9482           0      -186.789459  -3088.704102  -7323.333008     19.121403
    9483           0     -2821.431641  -1270.630737  -6947.776367    158.518280
    9484           0     -2647.742920  -1601.386475  -6947.774902    157.353943
    9485           0     -2435.458740  -1908.800903  -6947.774902     87.812218
    9486           0     -2187.675537  -2188.391602  -6947.774902     35.971031
    9487           0     -1908.003174  -2436.083496  -6947.774902     58.934074
    9488           0     -1600.519897  -2648.267090  -6947.774902     70.938622
    9489           0     -1269.707275  -2821.847656  -6947.774902     63.053837
    9490           0      -920.386963  -2954.296875  -6947.774902     46.898521
    9491           0      -557.651489  -3043.682861  -6947.774902     30.721399
    9492           0      -186.789505  -3088.704102  -6947.776367     17.864882
    9493           0     -2821.431641  -1270.630737  -6572.225586    162.403198
    9494           0     -2647.742920  -1601.386475  -6572.228027    152.243149
    9495           0     -2435.458740  -1908.800781  -6572.228027     80.432404
    9496           0     -2187.675537  -2188.391602  -6572.228027     40.170483
    9497           0     -1908.003418  -2436.083496  -6572.228027     64.200104
    9498           0     -1600.520020  -2648.266846  -6572.228027     71.771248
    9499           0     -1269.707520  -2821.847168  -6572.228027     61.013233
    9500           0      -920.387085  -2954.296631  -6572.228027     44.091805
    9501           0      -557.651550  -3043.682861  -6572.228027     29.039888
    9502           0      -186.789505  -3088.704102  -6572.225098     18.809551
    9503           0     -2821.431641  -1270.630737  -6196.666992    165.733963
    9504           0     -2647.743164  -1601.386353  -6196.666992    146.617203
    9505           0     -2435.458740  -1908.800781  -6196.666992     73.992889
    9506           0     -2187.675537  -2188.391602  -6196.666992     46.901348
    9507           0     -1908.003418  -2436.083496  -6196.667480     69.673615
    9508           0     -1600.520020  -2648.266602  -6196.667969     72.565475
    9509           0     -1269.707520  -2821.847168  -6196.667969     58.970005
    9510           0      -920.387085  -2954.296631  -6196.667969     41.598576
    9511           0      -557.651611  -3043.682861  -6196.667969     28.445990
    9512           0      -186.789505  -3088.704102  -6196.667480     21.621069
    9513           0     -2821.431885  -1270.630615  -5821.108398    168.355438
    9514           0     -2647.743164  -1601.386353  -5821.105469    140.528702
    9515           0     -2435.458740  -1908.800781  -5821.105469     69.198883
    9516           0     -2187.675537  -2188.391602  -5821.105469     55.393631
    9517           0     -1908.003540  -2436.083496  -5821.106445     75.282341
    9518           0     -1600.520020  -2648.266602  -5821.106934     73.320313
    9519           0     -1269.707520  -2821.847168  -5821.106934     56.952187
    9520           0      -920.387085  -2954.296631  -5821.106934     39.471001
    9521           0      -557.651611  -3043.682861  -5821.106934     28.975206
    9522           0      -186.789505  -3088.704102  -5821.109375     25.648554
    9523           0     -2821.431885  -1270.630615  -5445.557129    170.114487
    9524           0     -2647.743164  -1601.386230  -5445.558594    134.070343
    9525           0     -2435.458740  -1908.800537  -5445.558594     66.902100
    9526           0     -2187.675781  -2188.391113  -5445.558594     65.065765
    9527           0     -1908.003540  -2436.083252  -5445.559570     80.946693
    9528           0     -1600.520264  -2648.266602  -5445.560547     74.049484
    9529           0     -1269.707520  -2821.847168  -5445.560547     54.977184
    9530           0      -920.387207  -2954.296631  -5445.560547     37.764648
    9531           0      -557.651672  -3043.682861  -5445.560547     30.527288
    9532           0      -186.789505  -3088.704102  -5445.558105     30.379257
    9533           0     -2821.431885  -1270.630615  -5070.000488    170.835709
    9534           0     -2647.743164  -1601.386230  -5070.000977    127.445541
    9535           0     -2435.458740  -1908.800537  -5070.000977     67.855751
    9536           0     -2187.675781  -2188.391113  -5070.000977     75.491844
    9537           0     -1908.003540  -2436.083252  -5070.000977     86.622780
    9538           0     -1600.520264  -2648.266602  -5070.000977     74.754654
    9539           0     -1269.707520  -2821.847168  -5070.000977     53.075302
    9540           0      -920.387268  -2954.296631  -5070.000977     36.510933
    9541           0      -557.651733  -3043.682861  -5070.000977     32.924049
    9542           0      -186.789505  -3088.704102  -5070.000488     35.502632
    9543           0     -2821.431885  -1270.630615  -4694.443359    170.362793
    9544           0     -2647.743164  -1601.386230  -4694.442383    120.945023
    9545           0     -2435.458984  -1908.800537  -4694.442383     72.408569
    9546           0     -2187.675781  -2188.391113  -4694.442383     86.414474
    9547           0     -1908.003662  -2436.083252  -4694.441406     92.247177
    9548           0     -1600.520264  -2648.266602  -4694.440430     75.462845
    9549           0     -1269.707642  -2821.847168  -4694.440430     51.255623
    9550           0      -920.387329  -2954.296631  -4694.440430     35.735664
    9551           0      -557.651733  -3043.682861  -4694.440430     35.959976
    9552           0      -186.789505  -3088.704102  -4694.442383     40.848076
    9553           0     -2821.431885  -1270.630615  -4318.886230    168.531113
    9554           0     -2647.743164  -1601.386230  -4318.883789    115.090591
    9555           0     -2435.458984  -1908.800537  -4318.885254     80.346725
    9556           0     -2187.675781  -2188.391113  -4318.886719     97.596107
    9557           0     -1908.003662  -2436.083252  -4318.887695     97.805916
    9558           0     -1600.520264  -2648.266602  -4318.888672     76.177902
    9559           0     -1269.707764  -2821.847168  -4318.890137     49.547001
    9560           0      -920.387390  -2954.296631  -4318.891602     35.428299
    9561           0      -557.651733  -3043.682861  -4318.893066     39.460258
    9562           0      -186.789505  -3088.704102  -4318.891602     46.316437
    9563           0     -2821.431885  -1270.630615  -3943.327881    165.232574
    9564           0     -2647.743164  -1601.386230  -3943.322754    110.510994
    9565           0     -2435.458984  -1908.800537  -3943.324219     91.105354
    9566           0     -2187.675781  -2188.391113  -3943.326172    108.925751
    9567           0     -1908.003662  -2436.083008  -3943.327637    103.255714
    9568           0     -1600.520264  -2648.266602  -3943.329102     76.941978
    9569           0     -1269.707764  -2821.847168  -3943.330566     47.941978
    9570           0      -920.387390  -2954.296631  -3943.332031     35.573418
    9571           0      -557.651855  -3043.682861  -3943.333496     43.285034
    9572           0      -186.789505  -3088.704102  -3943.334473     51.851028
    9573           0     -2821.431885  -1270.630615  -3567.776123    160.400253
    9574           0     -2647.743164  -1601.386230  -3567.774170    108.192406
    9575           0     -2435.458984  -1908.800537  -3567.774170    104.032761
    9576           0     -2187.675781  -2188.391113  -3567.774170    120.212135
    9577           0     -1908.003906  -2436.083008  -3567.774170    108.615601
    9578           0     -1600.520386  -2648.266602  -3567.774170     77.755241
    9579           0     -1269.707764  -2821.847168  -3567.774170     46.464207
    9580           0      -920.387390  -2954.296631  -3567.774170     36.121403
    9581           0      -557.651855  -3043.682861  -3567.774170     47.333954
    9582           0      -186.789505  -3088.704102  -3567.776123     57.416878
    9583           0     -2821.431885  -1270.630615  -3192.224609    154.083359
    9584           0     -2647.743164  -1601.386230  -3192.227539    108.883728
    9585           0     -2435.458984  -1908.800537  -3192.227539    118.503952
    9586           0     -2187.675781  -2188.391113  -3192.227539    131.446609
    9587           0     -1908.003906  -2436.083008  -3192.227539    113.879219
    9588           0     -1600.520508  -2648.266602  -3192.227539     78.677696
    9589           0     -1269.707764  -2821.847168  -3192.227539     45.083668
    9590           0      -920.387451  -2954.296631  -3192.227539     37.030609
    9591           0      -557.651855  -3043.682617  -3192.227539     51.532570
    9592           0      -186.789505  -3088.704102  -3192.224365     62.988960
    9593           0     -2821.431885  -1270.630615  -2816.672607    146.535416
    9594           0     -2647.743164  -1601.386230  -2816.678711    113.664932
    9595           0     -2435.458984  -1908.800415  -2816.677734    134.122711
    9596           0     -2187.676025  -2188.391113  -2816.676270    142.445633
    9597           0     -1908.003906  -2436.083008  -2816.674072    119.089905
    9598           0     -1600.520508  -2648.266602  -2816.672607     79.680603
    9599           0     -1269.707886  -2821.847168  -2816.671143     43.814400
    9600           0      -920.387573  -2954.296631  -2816.669678     38.243984
    9601           0      -557.651978  -3043.682617  -2816.667969     55.835316
    9602           0      -186.789505  -3088.704102  -2816.666504     68.562355
    9603           0     -2821.431885  -1270.630615  -2441.113525    138.121246
    9604           0     -2647.743164  -1601.386230  -2441.114990    122.139671
    9605           0     -2435.458984  -1908.800415  -2441.114014    150.199448
    9606           0     -2187.676270  -2188.391113  -2441.112549    153.283066
    9607           0     -1908.004028  -2436.083008  -2441.110840    124.292145
    9608           0     -1600.520752  -2648.266602  -2441.109863     80.846855
    9609           0     -1269.708008  -2821.847168  -2441.108398     42.611958
    9610           0      -920.387634  -2954.296631  -2441.106934     39.699234
    9611           0      -557.651978  -3043.682617  -2441.105469     60.175663
    9612           0      -186.789551  -3088.704102  -2441.107910     74.086708
    9613           0     -2821.431885  -1270.630615  -2065.554443    129.947769
    9614           0     -2647.743164  -1601.385986  -2065.553955    135.297440
    9615           0     -2435.458984  -1908.800415  -2065.553955    167.106369
    9616           0     -2187.676270  -2188.391113  -2065.553955    164.007950
    9617           0     -1908.004028  -2436.083008  -2065.554932    129.602386
    9618           0     -1600.520752  -2648.266602  -2065.555908     82.077324
    9619           0     -1269.708008  -2821.847168  -2065.555908     41.485641
    9620           0      -920.387634  -2954.296631  -2065.555908     41.417107
    9621           0      -557.652039  -3043.682617  -2065.555908     64.643982
    9622           0      -186.789612  -3088.704102  -2065.555176     79.699364
    9623           0     -2821.431885  -1270.630615  -1689.999390    122.421036
    9624           0     -2647.743164  -1601.385986  -1690.000366    149.678452
    9625           0     -2435.458984  -1908.800293  -1690.000366    182.637070
    9626           0     -2187.676270  -2188.390869  -1690.000366    174.048920
    9627           0     -1908.004150  -2436.082764  -1690.000488    134.720627
    9628           0     -1600.520874  -2648.266357  -1690.000488     83.377480
    9629           0     -1269.708008  -2821.847168  -1690.000488     40.411423
    9630           0      -920.387695  -2954.296631  -1690.000488     43.115002
    9631           0      -557.652100  -3043.682617  -1690.000488     68.819237
    9632           0      -186.789612  -3088.704102  -1689.999390     84.905746
    9633           0     -2821.431885  -1270.630615  -1314.445313    118.514580
    9634           0     -2647.743164  -1601.385986  -1314.446899    169.985153
    9635           0     -2435.458984  -1908.800293  -1314.446899    201.565720
    9636           0     -2187.676270  -2188.390869  -1314.446899    186.196457
    9637           0     -1908.004150  -2436.082764  -1314.446411    141.145966
    9638           0     -1600.520874  -2648.266113  -1314.445435     85.090515
    9639           0     -1269.708130  -2821.847168  -1314.444824     39.485687
    9640           0      -920.387695  -2954.296631  -1314.444824     45.491596
    9641           0      -557.652161  -3043.682617  -1314.444824     73.920967
    9642           0      -186.789612  -3088.704102  -1314.444336     91.224449
    9643           0     -2821.431885  -1270.630615   -938.887390    114.950760
    9644           0     -2647.743164  -1601.385986   -938.886841    182.146286
    9645           0     -2435.458984  -1908.800293   -938.887878    211.135025
    9646           0     -2187.676270  -2188.390625   -938.889404    192.229797
    9647           0     -1908.004150  -2436.082764   -938.890869    143.674774
    9648           0     -1600.520874  -2648.266113   -938.891846     85.333237
    9649           0     -1269.708252  -2821.847168   -938.893372     38.447319
    9650           0      -920.387756  -2954.296387   -938.894897     46.483681
    9651           0      -557.652161  -3043.682617   -938.896362     76.466110
    9652           0      -186.789612  -3088.704102   -938.892944     94.286041
    9653           0     -2821.431885  -1270.630615   -563.327271    119.167732
    9654           0     -2647.743164  -1601.385986   -563.323242    213.005676
    9655           0     -2435.458984  -1908.800293   -563.324280    242.816345
    9656           0     -2187.676270  -2188.390625   -563.325745    215.432861
    9657           0     -1908.004150  -2436.082764   -563.327271    157.389511
    9658           0     -1600.520874  -2648.266113   -563.328796     90.916260
    9659           0     -1269.708252  -2821.846924   -563.330811     37.881989
    9660           0      -920.387878  -2954.296387   -563.332336     50.944649
    9661           0      -557.652222  -3043.682617   -563.333801     85.426285
    9662           0      -186.789612  -3088.704102   -563.333313    105.531975
    9663           0     -2821.431885  -1270.630615   -187.775253    109.314926
    9664           0     -2647.743164  -1601.385864   -187.773239    203.074829
    9665           0     -2435.459229  -1908.800293   -187.773239    228.247818
    9666           0     -2187.676270  -2188.390625   -187.773239    200.198608
    9667           0     -1908.004395  -2436.082764   -187.773239    145.506607
    9668           0     -1600.520996  -2648.266113   -187.773239     84.018173
    9669           0     -1269.708374  -2821.846924   -187.773239     37.003391
    9670           0      -920.387939  -2954.296387   -187.773239     49.278297
    9671           0      -557.652283  -3043.682617   -187.773239     80.635071
    9672           0      -186.789612  -3088.704102   -187.775253     98.865051
    9673           0      2717.133057  -1100.000122  -69807.68750     26.997982
    9674           0      2354.848633  -1100.000000  -69807.68750     44.716343
    9675           0      1992.564331  -1100.000000  -69807.68750     66.218369
    9676           0      1630.279785  -1100.000000  -69807.68750     83.928207
    9677           0      1267.995483  -1100.000000  -69807.68750     97.311005
    9678           0       905.711060  -1100.000000  -69807.68750    106.690392
    9679           0       543.426575  -1100.000000  -69807.68750    112.597527
    9680           0       181.142136  -1100.000000  -69807.68750    115.428749
    9681           0      -181.142288  -1100.000000  -69807.68750    115.411903
    9682           0      -543.426758  -1100.000000  -69807.68750    112.547821
    9683           0      -905.711182  -1100.000000  -69807.68750    106.610634
    9684           0     -1267.995605  -1100.000000  -69807.68750     97.206566
    9685           0     -1630.279785  -1100.000000  -69807.68750     83.808083
    9686           0     -1992.564209  -1100.000000  -69807.68750     66.096855
    9687           0     -2354.849121  -1100.000000  -69807.68750     44.616898
    9688           0     -2717.133301  -1099.999878  -69807.68750     26.950363
    9689           0      2717.133057  -1100.000122  -69423.07812     50.717129
    9690           0      2354.848633  -1100.000000  -69423.07812     47.244503
    9691           0      1992.564331  -1100.000000  -69423.07812     42.588066
    9692           0      1630.279785  -1100.000000  -69423.07812     40.579926
    9693           0      1267.995483  -1100.000000  -69423.07812     41.192360
    9694           0       905.711060  -1100.000000  -69423.07812     42.924084
    9695           0       543.426575  -1100.000000  -69423.07812     44.610687
    9696           0       181.142136  -1100.000000  -69423.07812     45.582687
    9697           0      -181.142288  -1100.000000  -69423.07812     45.571342
    9698           0      -543.426758  -1100.000000  -69423.07812     44.578510
    9699           0      -905.711182  -1100.000000  -69423.07812     42.876888
    9700           0     -1267.995605  -1100.000000  -69423.07812     41.141197
    9701           0     -1630.279785  -1100.000000  -69423.07812     40.538940
    9702           0     -1992.564209  -1100.000000  -69423.07812     42.566765
    9703           0     -2354.849121  -1100.000000  -69423.07812     47.230984
    9704           0     -2717.133301  -1099.999878  -69423.07812     50.673878
    9705           0      2717.133057  -1100.000122  -69038.46093     53.134705
    9706           0      2354.848633  -1100.000000  -69038.46093     51.447819
    9707           0      1992.564331  -1100.000000  -69038.46093     45.676029
    9708           0      1630.279785  -1100.000000  -69038.46093     37.334797
    9709           0      1267.995483  -1100.000000  -69038.46093     28.885689
    9710           0       905.711060  -1100.000000  -69038.46093     21.331654
    9711           0       543.426575  -1100.000000  -69038.46093     15.202448
    9712           0       181.142136  -1100.000000  -69038.46093     11.428910
    9713           0      -181.142288  -1100.000000  -69038.46093     11.480033
    9714           0      -543.426758  -1100.000000  -69038.46093     15.319351
    9715           0      -905.711182  -1100.000000  -69038.46093     21.472940
    9716           0     -1267.995605  -1100.000000  -69038.46093     29.029240
    9717           0     -1630.279785  -1100.000000  -69038.46093     37.464195
    9718           0     -1992.564209  -1100.000000  -69038.46093     45.772350
    9719           0     -2354.849121  -1100.000000  -69038.46093     51.491196
    9720           0     -2717.133301  -1099.999878  -69038.46093     53.099583
    9721           0      2717.133057  -1100.000122  -68653.84375     45.578007
    9722           0      2354.848633  -1100.000000  -68653.84375     47.947346
    9723           0      1992.564331  -1100.000000  -68653.84375     48.706600
    9724           0      1630.279785  -1100.000000  -68653.84375     47.994675
    9725           0      1267.995483  -1100.000000  -68653.84375     46.643269
    9726           0       905.711060  -1100.000000  -68653.84375     45.589561
    9727           0       543.426575  -1100.000000  -68653.84375     45.014256
    9728           0       181.142136  -1100.000000  -68653.84375     44.792690
    9729           0      -181.142288  -1100.000000  -68653.84375     44.819916
    9730           0      -543.426758  -1100.000000  -68653.84375     45.095993
    9731           0      -905.711182  -1100.000000  -68653.84375     45.723244
    9732           0     -1267.995605  -1100.000000  -68653.84375     46.817261
    9733           0     -1630.279785  -1100.000000  -68653.84375     48.182926
    9734           0     -1992.564209  -1100.000000  -68653.84375     48.871002
    9735           0     -2354.849121  -1100.000000  -68653.84375     48.041355
    9736           0     -2717.133301  -1099.999878  -68653.84375     45.538582
    9737           0      2717.133057  -1100.000122  -68269.23437     30.219578
    9738           0      2354.848633  -1100.000000  -68269.23437     39.993664
    9739           0      1992.564331  -1100.000000  -68269.23437     49.035908
    9740           0      1630.279785  -1100.000000  -68269.23437     55.498867
    9741           0      1267.995483  -1100.000000  -68269.23437     60.266911
    9742           0       905.711060  -1100.000000  -68269.23437     63.699860
    9743           0       543.426575  -1100.000000  -68269.23437     65.988724
    9744           0       181.142136  -1100.000000  -68269.23437     67.155319
    9745           0      -181.142288  -1100.000000  -68269.23437     67.175194
    9746           0      -543.426758  -1100.000000  -68269.23437     66.051208
    9747           0      -905.711182  -1100.000000  -68269.23437     63.810780
    9748           0     -1267.995605  -1100.000000  -68269.23437     60.428295
    9749           0     -1630.279785  -1100.000000  -68269.23437     55.699436
    9750           0     -1992.564209  -1100.000000  -68269.23437     49.243900
    9751           0     -2354.849121  -1100.000000  -68269.23437     40.151928
    9752           0     -2717.133301  -1099.999878  -68269.23437     30.230001
    9753           0      2717.133057  -1100.000122  -67884.61718     13.671050
    9754           0      2354.848633  -1100.000000  -67884.61718     33.498493
    9755           0      1992.564331  -1100.000000  -67884.61718     48.152069
    9756           0      1630.279785  -1100.000000  -67884.61718     58.785824
    9757           0      1267.995483  -1100.000000  -67884.61718     66.460808
    9758           0       905.711060  -1100.000000  -67884.61718     71.947929
    9759           0       543.426575  -1100.000000  -67884.61718     75.523705
    9760           0       181.142136  -1100.000000  -67884.61718     77.298904
    9761           0      -181.142288  -1100.000000  -67884.61718     77.311554
    9762           0      -543.426758  -1100.000000  -67884.61718     75.566238
    9763           0      -905.711182  -1100.000000  -67884.61718     72.031776
    9764           0     -1267.995605  -1100.000000  -67884.61718     66.596519
    9765           0     -1630.279785  -1100.000000  -67884.61718     58.973427
    9766           0     -1992.564209  -1100.000000  -67884.61718     48.375347
    9767           0     -2354.849121  -1100.000000  -67884.61718     33.726448
    9768           0     -2717.133301  -1099.999878  -67884.61718     13.842443
    9769           0      2717.133057  -1100.000122  -67500.00000     16.429747
    9770           0      2354.848633  -1100.000000  -67500.00000     34.230259
    9771           0      1992.564331  -1100.000000  -67500.00000     48.370804
    9772           0      1630.279785  -1100.000000  -67500.00000     58.394714
    9773           0      1267.995483  -1100.000000  -67500.00000     65.645302
    9774           0       905.711060  -1100.000000  -67500.00000     70.770584
    9775           0       543.426575  -1100.000000  -67500.00000     74.107254
    9776           0       181.142136  -1100.000000  -67500.00000     75.760841
    9777           0      -181.142288  -1100.000000  -67500.00000     75.764961
    9778           0      -543.426758  -1100.000000  -67500.00000     74.125778
    9779           0      -905.711182  -1100.000000  -67500.00000     70.818398
    9780           0     -1267.995605  -1100.000000  -67500.00000     65.737602
    9781           0     -1630.279785  -1100.000000  -67500.00000     58.536026
    9782           0     -1992.564209  -1100.000000  -67500.00000     48.550026
    9783           0     -2354.849121  -1100.000000  -67500.00000     34.432785
    9784           0     -2717.133301  -1099.999878  -67500.00000     16.682688
    9785           0      2717.133057  -1100.000122  -67115.39062     33.151165
    9786           0      2354.848633  -1100.000000  -67115.39062     41.882507
    9787           0      1992.564331  -1100.000000  -67115.39062     49.483570
    9788           0      1630.279785  -1100.000000  -67115.39062     54.603874
    9789           0      1267.995483  -1100.000000  -67115.39062     57.939423
    9790           0       905.711060  -1100.000000  -67115.39062     60.203331
    9791           0       543.426575  -1100.000000  -67115.39062     61.665665
    9792           0       181.142136  -1100.000000  -67115.39062     62.399475
    9793           0      -181.142288  -1100.000000  -67115.39062     62.395477
    9794           0      -543.426758  -1100.000000  -67115.39062     61.659084
    9795           0      -905.711182  -1100.000000  -67115.39062     60.207039
    9796           0     -1267.995605  -1100.000000  -67115.39062     57.963371
    9797           0     -1630.279785  -1100.000000  -67115.39062     54.645370
    9798           0     -1992.564209  -1100.000000  -67115.39062     49.530811
    9799           0     -2354.849121  -1100.000000  -67115.39062     41.936977
    9800           0     -2717.133301  -1099.999878  -67115.39062     33.259636
    9801           0      2717.133057  -1100.000122  -66730.77343     47.257519
    9802           0      2354.848633  -1100.000000  -66730.77343     49.863953
    9803           0      1992.564331  -1100.000000  -66730.77343     49.844826
    9804           0      1630.279785  -1100.000000  -66730.77343     47.305511
    9805           0      1267.995483  -1100.000000  -66730.77343     43.690121
    9806           0       905.711060  -1100.000000  -66730.77343     40.210205
    9807           0       543.426575  -1100.000000  -66730.77343     37.649166
    9808           0       181.142136  -1100.000000  -66730.77343     36.323936
    9809           0      -181.142288  -1100.000000  -66730.77343     36.325478
    9810           0      -543.426758  -1100.000000  -66730.77343     37.649277
    9811           0      -905.711182  -1100.000000  -66730.77343     40.192921
    9812           0     -1267.995605  -1100.000000  -66730.77343     43.628750
    9813           0     -1630.279785  -1100.000000  -66730.77343     47.175877
    9814           0     -1992.564209  -1100.000000  -66730.77343     49.652168
    9815           0     -2354.849121  -1100.000000  -66730.77343     49.681065
    9816           0     -2717.133301  -1099.999878  -66730.77343     47.252010
    9817           0      2717.133057  -1100.000122  -66346.15625     54.216743
    9818           0      2354.848633  -1100.000000  -66346.15625     53.125622
    9819           0      1992.564331  -1100.000000  -66346.15625     47.908634
    9820           0      1630.279785  -1100.000000  -66346.15625     39.647137
    9821           0      1267.995483  -1100.000000  -66346.15625     30.298321
    9822           0       905.711060  -1100.000000  -66346.15625     21.205702
    9823           0       543.426575  -1100.000000  -66346.15625     13.078413
    9824           0       181.142136  -1100.000000  -66346.15625      6.976150
    9825           0      -181.142288  -1100.000000  -66346.15625      7.326582
    9826           0      -543.426758  -1100.000000  -66346.15625     13.549141
    9827           0      -905.711182  -1100.000000  -66346.15625     21.500652
    9828           0     -1267.995605  -1100.000000  -66346.15625     30.313986
    9829           0     -1630.279785  -1100.000000  -66346.15625     39.348099
    9830           0     -1992.564209  -1100.000000  -66346.15625     47.373901
    9831           0     -2354.849121  -1100.000000  -66346.15625     52.583221
    9832           0     -2717.133301  -1099.999878  -66346.15625     54.008755
    9833           0      2717.133057  -1100.000122  -65961.53906     49.230450
    9834           0      2354.848633  -1100.000000  -65961.53906     49.942997
    9835           0      1992.564331  -1100.000000  -65961.53906     48.367332
    9836           0      1630.279785  -1100.000000  -65961.53906     48.958576
    9837           0      1267.995483  -1100.000000  -65961.53906     52.401024
    9838           0       905.711060  -1100.000000  -65961.53906     57.054325
    9839           0       543.426575  -1100.000000  -65961.53906     61.145729
    9840           0       181.142136  -1100.000000  -65961.53906     63.526005
    9841           0      -181.142288  -1100.000000  -65961.53906     63.662231
    9842           0      -543.426758  -1100.000000  -65961.53906     61.523800
    9843           0      -905.711182  -1100.000000  -65961.53906     57.569439
    9844           0     -1267.995605  -1100.000000  -65961.53906     52.835102
    9845           0     -1630.279785  -1100.000000  -65961.53906     48.973721
    9846           0     -1992.564209  -1100.000000  -65961.53906     47.652412
    9847           0     -2354.849121  -1100.000000  -65961.53906     48.811657
    9848           0     -2717.133301  -1099.999878  -65961.53906     48.669479
    9849           0      2717.133057  -1100.000122  -65576.92187     32.373806
    9850           0      2354.848633  -1100.000000  -65576.92187     49.730942
    9851           0      1992.564331  -1100.000000  -65576.92187     71.795784
    9852           0      1630.279785  -1100.000000  -65576.92187     93.669342
    9853           0      1267.995483  -1100.000000  -65576.92187    112.698555
    9854           0       905.711060  -1100.000000  -65576.92187    127.626091
    9855           0       543.426575  -1100.000000  -65576.92187    137.854095
    9856           0       181.142136  -1100.000000  -65576.92187    143.096252
    9857           0      -181.142288  -1100.000000  -65576.92187    143.234329
    9858           0      -543.426758  -1100.000000  -65576.92187    138.250381
    9859           0      -905.711182  -1100.000000  -65576.92187    128.221054
    9860           0     -1267.995605  -1100.000000  -65576.92187    113.375305
    9861           0     -1630.279785  -1100.000000  -65576.92187     94.204819
    9862           0     -1992.564209  -1100.000000  -65576.92187     71.796722
    9863           0     -2354.849121  -1100.000000  -65576.92187     48.371216
    9864           0     -2717.133301  -1099.999878  -65576.92187     30.441242
    9865           0      2717.133057  -1100.000122  -65192.30468     47.444721
    9866           0      2354.848633  -1100.000000  -65192.30468     93.700890
    9867           0      1992.564331  -1100.000000  -65192.30468    137.114609
    9868           0      1630.279785  -1100.000000  -65192.30468    174.159546
    9869           0      1267.995483  -1100.000000  -65192.30468    203.924179
    9870           0       905.711060  -1100.000000  -65192.30468    226.212936
    9871           0       543.426575  -1100.000000  -65192.30468    241.048874
    9872           0       181.142136  -1100.000000  -65192.30468    248.515366
    9873           0      -181.142288  -1100.000000  -65192.30468    248.660629
    9874           0      -543.426758  -1100.000000  -65192.30468    241.469055
    9875           0      -905.711182  -1100.000000  -65192.30468    226.860321
    9876           0     -1267.995605  -1100.000000  -65192.30468    204.710297
    9877           0     -1630.279785  -1100.000000  -65192.30468    174.944153
    9878           0     -1992.564209  -1100.000000  -65192.30468    137.659317
    9879           0     -2354.849121  -1100.000000  -65192.30468     93.705772
    9880           0     -2717.133301  -1099.999878  -65192.30468     46.086475
    9881           0      2717.133057  -1100.000122  -64812.04687    121.656647
    9882           0      2354.848633  -1100.000000  -64812.04687    141.544296
    9883           0      1992.564331  -1100.000000  -64812.04687    168.342819
    9884           0      1630.279785  -1100.000000  -64812.04687    194.809952
    9885           0      1267.995483  -1100.000000  -64812.04687    217.585281
    9886           0       905.711060  -1100.000000  -64812.04687    235.176422
    9887           0       543.426575  -1100.000000  -64812.04687    246.954407
    9888           0       181.142136  -1100.000000  -64812.04687    252.669693
    9889           0      -181.142288  -1100.000000  -64812.04687    252.234024
    9890           0      -543.426758  -1100.000000  -64812.04687    245.631287
    9891           0      -905.711182  -1100.000000  -64812.04687    232.915146
    9892           0     -1267.995605  -1100.000000  -64812.04687    214.289963
    9893           0     -1630.279907  -1100.000000  -64812.04687    190.330719
    9894           0     -1992.564331  -1100.000000  -64812.04687    162.487823
    9895           0     -2354.849121  -1100.000000  -64812.04687    134.263306
    9896           0     -2717.133301  -1099.999878  -64812.04687    114.049461
    9897           0      2717.133057  -1100.000122  -64436.14062    172.241104
    9898           0      2354.848633  -1100.000000  -64436.14062    170.653931
    9899           0      1992.564331  -1100.000000  -64436.14062    166.075226
    9900           0      1630.279785  -1100.000000  -64436.14062    162.438370
    9901           0      1267.995483  -1100.000000  -64436.14062    160.020584
    9902           0       905.711060  -1100.000000  -64436.14062    158.549744
    9903           0       543.426575  -1100.000000  -64436.14062    157.507248
    9904           0       181.142136  -1100.000000  -64436.14062    156.484680
    9905           0      -181.142288  -1100.000000  -64436.14062    155.274948
    9906           0      -543.426758  -1100.000000  -64436.14062    153.934418
    9907           0      -905.711182  -1100.000000  -64436.14062    152.792587
    9908           0     -1267.995605  -1100.000000  -64436.14062    152.414032
    9909           0     -1630.280029  -1100.000000  -64436.14062    153.504089
    9910           0     -1992.564453  -1100.000000  -64436.14062    156.559860
    9911           0     -2354.848633  -1100.000000  -64436.14062    161.534302
    9912           0     -2717.133301  -1099.999878  -64436.14062    166.106522
    9913           0      2717.133057  -1100.000122  -64060.24218    198.974075
    9914           0      2354.848633  -1100.000000  -64060.24218    194.664368
    9915           0      1992.564331  -1100.000000  -64060.24218    181.383789
    9916           0      1630.279785  -1100.000000  -64060.24218    163.286758
    9917           0      1267.995483  -1100.000000  -64060.24218    143.429581
    9918           0       905.711060  -1100.000000  -64060.24218    123.988953
    9919           0       543.426575  -1100.000000  -64060.24218    107.361816
    9920           0       181.142136  -1100.000000  -64060.24218     96.359329
    9921           0      -181.142288  -1100.000000  -64060.24218     93.694435
    9922           0      -543.426758  -1100.000000  -64060.24218    100.185516
    9923           0      -905.711182  -1100.000000  -64060.24218    113.985970
    9924           0     -1267.995605  -1100.000000  -64060.24218    132.124008
    9925           0     -1630.280029  -1100.000000  -64060.24218    151.808792
    9926           0     -1992.564453  -1100.000000  -64060.24218    170.628052
    9927           0     -2354.848633  -1100.000000  -64060.24218    185.766983
    9928           0     -2717.133301  -1099.999878  -64060.24218    193.287766
    9929           0      2717.133057  -1100.000122  -63684.33984    210.702103
    9930           0      2354.848633  -1100.000000  -63684.33984    206.645721
    9931           0      1992.564331  -1100.000000  -63684.33984    194.114471
    9932           0      1630.279785  -1100.000000  -63684.33984    174.659805
    9933           0      1267.995483  -1100.000000  -63684.33984    151.059601
    9934           0       905.711060  -1100.000000  -63684.33984    126.102364
    9935           0       543.426575  -1100.000000  -63684.33984    103.071510
    9936           0       181.142136  -1100.000000  -63684.33984     86.853943
    9937           0      -181.142288  -1100.000000  -63684.33984     83.337471
    9938           0      -543.426758  -1100.000000  -63684.33984     94.186188
    9939           0      -905.711182  -1100.000000  -63684.33984    114.557610
    9940           0     -1267.995605  -1100.000000  -63684.33984    138.694290
    9941           0     -1630.280029  -1100.000000  -63684.33984    162.611053
    9942           0     -1992.564453  -1100.000000  -63684.33984    183.300491
    9943           0     -2354.848633  -1100.000000  -63684.33984    197.996536
    9944           0     -2717.133301  -1099.999878  -63684.33984    205.179260
    9945           0      2717.133057  -1100.000122  -63308.43359    211.291016
    9946           0      2354.848633  -1100.000000  -63308.43359    209.940170
    9947           0      1992.564331  -1100.000000  -63308.43359    201.240784
    9948           0      1630.279785  -1100.000000  -63308.43359    186.186691
    9949           0      1267.995483  -1100.000000  -63308.43359    166.826187
    9950           0       905.711060  -1100.000000  -63308.43359    145.966034
    9951           0       543.426575  -1100.000000  -63308.43359    127.038826
    9952           0       181.142136  -1100.000000  -63308.43359    114.189186
    9953           0      -181.142288  -1100.000000  -63308.43359    111.298470
    9954           0      -543.426758  -1100.000000  -63308.43359    119.317566
    9955           0      -905.711182  -1100.000000  -63308.43359    135.334778
    9956           0     -1267.995605  -1100.000000  -63308.43359    154.999329
    9957           0     -1630.280029  -1100.000000  -63308.43359    174.459396
    9958           0     -1992.564453  -1100.000000  -63308.43359    190.661133
    9959           0     -2354.848633  -1100.000000  -63308.43359    201.477859
    9960           0     -2717.133301  -1099.999878  -63308.43359    205.842178
    9961           0      2717.133057  -1100.000122  -62932.53125    205.325562
    9962           0      2354.848633  -1100.000000  -62932.53125    206.947433
    9963           0      1992.564331  -1100.000000  -62932.53125    203.889175
    9964           0      1630.279785  -1100.000000  -62932.53125    195.584488
    9965           0      1267.995483  -1100.000000  -62932.53125    183.499283
    9966           0       905.711060  -1100.000000  -62932.53125    169.921661
    9967           0       543.426575  -1100.000000  -62932.53125    157.586655
    9968           0       181.142136  -1100.000000  -62932.53125    149.253860
    9969           0      -181.142288  -1100.000000  -62932.53125    146.988785
    9970           0      -543.426758  -1100.000000  -62932.53125    151.269226
    9971           0      -905.711182  -1100.000000  -62932.53125    160.706650
    9972           0     -1267.995605  -1100.000000  -62932.53125    172.732925
    9973           0     -1630.280029  -1100.000000  -62932.53125    184.528397
    9974           0     -1992.564453  -1100.000000  -62932.53125    193.686066
    9975           0     -2354.848633  -1100.000000  -62932.53125    198.656479
    9976           0     -2717.133301  -1099.999878  -62932.53125    199.928299
    9977           0      2717.133057  -1100.000122  -62556.62500    194.829285
    9978           0      2354.848633  -1100.000000  -62556.62500    200.318634
    9979           0      1992.564331  -1100.000000  -62556.62500    203.646545
    9980           0      1630.279785  -1100.000000  -62556.62500    203.091995
    9981           0      1267.995483  -1100.000000  -62556.62500    199.085327
    9982           0       905.711060  -1100.000000  -62556.62500    193.132431
    9983           0       543.426575  -1100.000000  -62556.62500    187.054855
    9984           0       181.142136  -1100.000000  -62556.62500    182.538605
    9985           0      -181.142288  -1100.000000  -62556.62500    180.716736
    9986           0      -543.426758  -1100.000000  -62556.62500    181.851929
    9987           0      -905.711182  -1100.000000  -62556.62500    185.256149
    9988           0     -1267.995605  -1100.000000  -62556.62500    189.507538
    9989           0     -1630.280029  -1100.000000  -62556.62500    192.894669
    9990           0     -1992.564453  -1100.000000  -62556.62500    193.942581
    9991           0     -2354.848633  -1100.000000  -62556.62500    192.237228
    9992           0     -2717.133301  -1099.999878  -62556.62500    189.472351
    9993           0      2717.133057  -1100.000122  -62180.72656    181.989609
    9994           0      2354.848633  -1100.000000  -62180.72656    191.646149
    9995           0      1992.564331  -1100.000000  -62180.72656    201.957733
    9996           0      1630.279785  -1100.000000  -62180.72656    209.371964
    9997           0      1267.995483  -1100.000000  -62180.72656    213.299896
    9998           0       905.711060  -1100.000000  -62180.72656    214.396698
    9999           0       543.426575  -1100.000000  -62180.72656    213.740524
   10000           0       181.142136  -1100.000000  -62180.72656    212.336990
   10001           0      -181.142288  -1100.000000  -62180.72656    210.846344
   10002           0      -543.426758  -1100.000000  -62180.72656    209.427048
   10003           0      -905.711182  -1100.000000  -62180.72656    207.710388
   10004           0     -1267.995605  -1100.000000  -62180.72656    204.923141
   10005           0     -1630.280029  -1100.000000  -62180.72656    200.156494
   10006           0     -1992.564453  -1100.000000  -62180.72656    192.891235
   10007           0     -2354.848633  -1100.000000  -62180.72656    183.852219
   10008           0     -2717.133301  -1099.999878  -62180.72656    176.698807
   10009           0      2717.133057  -1100.000122  -61804.82421    167.924530
   10010           0      2354.848633  -1100.000000  -61804.82421    182.317307
   10011           0      1992.564331  -1100.000000  -61804.82421    199.822128
   10012           0      1630.279785  -1100.000000  -61804.82421    215.022324
   10013           0      1267.995483  -1100.000000  -61804.82421    226.272598
   10014           0       905.711060  -1100.000000  -61804.82421    233.580078
   10015           0       543.426575  -1100.000000  -61804.82421    237.499649
   10016           0       181.142136  -1100.000000  -61804.82421    238.641937
   10017           0      -181.142288  -1100.000000  -61804.82421    237.416122
   10018           0      -543.426758  -1100.000000  -61804.82421    233.923737
   10019           0      -905.711182  -1100.000000  -61804.82421    227.951385
   10020           0     -1267.995605  -1100.000000  -61804.82421    219.065369
   10021           0     -1630.280029  -1100.000000  -61804.82421    206.871796
   10022           0     -1992.564453  -1100.000000  -61804.82421    191.533661
   10023           0     -2354.848633  -1100.000000  -61804.82421    174.924210
   10024           0     -2717.133301  -1099.999878  -61804.82421    162.732040
   10025           0      2717.133057  -1100.000122  -61428.91796    153.668777
   10026           0      2354.848633  -1100.000000  -61428.91796    173.160965
   10027           0      1992.564331  -1100.000000  -61428.91796    197.909286
   10028           0      1630.279785  -1100.000000  -61428.91796    220.392471
   10029           0      1267.995483  -1100.000000  -61428.91796    238.171478
   10030           0       905.711060  -1100.000000  -61428.91796    250.807190
   10031           0       543.426575  -1100.000000  -61428.91796    258.551392
   10032           0       181.142136  -1100.000000  -61428.91796    261.784210
   10033           0      -181.142288  -1100.000000  -61428.91796    260.779572
   10034           0      -543.426758  -1100.000000  -61428.91796    255.606125
   10035           0      -905.711182  -1100.000000  -61428.91796    246.124298
   10036           0     -1267.995605  -1100.000000  -61428.91796    232.081711
   10037           0     -1630.280029  -1100.000000  -61428.91796    213.352203
   10038           0     -1992.564453  -1100.000000  -61428.91796    190.528168
   10039           0     -2354.848633  -1100.000000  -61428.91796    166.304245
   10040           0     -2717.133301  -1099.999878  -61428.91796    148.636169
   10041           0      2717.133057  -1100.000122  -61053.01171    139.790497
   10042           0      2354.848633  -1100.000000  -61053.01171    164.787048
   10043           0      1992.564331  -1100.000000  -61053.01171    196.562393
   10044           0      1630.279785  -1100.000000  -61053.01171    225.657669
   10045           0      1267.995483  -1100.000000  -61053.01171    249.104675
   10046           0       905.711060  -1100.000000  -61053.01171    266.247345
   10047           0       543.426575  -1100.000000  -61053.01171    277.168579
   10048           0       181.142136  -1100.000000  -61053.01171    282.124603
   10049           0      -181.142288  -1100.000000  -61053.01171    281.310059
   10050           0      -543.426758  -1100.000000  -61053.01171    274.773315
   10051           0      -905.711182  -1100.000000  -61053.01171    262.414734
   10052           0     -1267.995605  -1100.000000  -61053.01171    244.068085
   10053           0     -1630.280029  -1100.000000  -61053.01171    219.737946
   10054           0     -1992.564453  -1100.000000  -61053.01171    190.190781
   10055           0     -2354.848633  -1100.000000  -61053.01171    158.614136
   10056           0     -2717.133301  -1099.999878  -61053.01171    134.991302
   10057           0      2717.133057  -1100.000122  -60677.10937    126.744293
   10058           0      2354.848633  -1100.000000  -60677.10937    157.507141
   10059           0      1992.564331  -1100.000000  -60677.10937    195.917603
   10060           0      1630.279785  -1100.000000  -60677.10937    230.850830
   10061           0      1267.995483  -1100.000000  -60677.10937    259.138214
   10062           0       905.711060  -1100.000000  -60677.10937    280.053650
   10063           0       543.426575  -1100.000000  -60677.10937    293.609009
   10064           0       181.142136  -1100.000000  -60677.10937    299.988129
   10065           0      -181.142288  -1100.000000  -60677.10937    299.339813
   10066           0      -543.426758  -1100.000000  -60677.10937    291.699707
   10067           0      -905.711182  -1100.000000  -60677.10937    276.988098
   10068           0     -1267.995605  -1100.000000  -60677.10937    255.084442
   10069           0     -1630.280029  -1100.000000  -60677.10937    226.033035
   10070           0     -1992.564453  -1100.000000  -60677.10937    190.622711
   10071           0     -2354.848633  -1100.000000  -60677.10937    152.161453
   10072           0     -2717.133301  -1099.999878  -60677.10937    122.278427
   10073           0      2717.133057  -1100.000122  -60301.20312    114.770119
   10074           0      2354.848633  -1100.000000  -60301.20312    151.472015
   10075           0      1992.564331  -1100.000000  -60301.20312    195.956635
   10076           0      1630.279785  -1100.000000  -60301.20312    235.941147
   10077           0      1267.995483  -1100.000000  -60301.20312    268.307281
   10078           0       905.711060  -1100.000000  -60301.20312    292.365173
   10079           0       543.426575  -1100.000000  -60301.20312    308.100525
   10080           0       181.142136  -1100.000000  -60301.20312    315.658539
   10081           0      -181.142288  -1100.000000  -60301.20312    315.157501
   10082           0      -543.426758  -1100.000000  -60301.20312    306.624512
   10083           0      -905.711182  -1100.000000  -60301.20312    289.993378
   10084           0     -1267.995605  -1100.000000  -60301.20312    265.164276
   10085           0     -1630.280029  -1100.000000  -60301.20312    232.185135
   10086           0     -1992.564453  -1100.000000  -60301.20312    191.769150
   10087           0     -2354.848633  -1100.000000  -60301.20312    147.079620
   10088           0     -2717.133301  -1099.999878  -60301.20312    110.753914
   10089           0      2717.133057  -1100.000122  -59925.29687    104.023987
   10090           0      2354.848633  -1100.000000  -59925.29687    146.678177
   10091           0      1992.564331  -1100.000000  -59925.29687    196.583572
   10092           0      1630.279785  -1100.000000  -59925.29687    240.864716
   10093           0      1267.995483  -1100.000000  -59925.29687    276.641449
   10094           0       905.711060  -1100.000000  -59925.29687    303.306793
   10095           0       543.426575  -1100.000000  -59925.29687    320.847656
   10096           0       181.142136  -1100.000000  -59925.29687    329.384216
   10097           0      -181.142288  -1100.000000  -59925.29687    329.014740
   10098           0      -543.426758  -1100.000000  -59925.29687    319.760529
   10099           0      -905.711182  -1100.000000  -59925.29687    301.563934
   10100           0     -1267.995605  -1100.000000  -59925.29687    274.338623
   10101           0     -1630.280029  -1100.000000  -59925.29687    238.116913
   10102           0     -1992.564453  -1100.000000  -59925.29687    193.502243
   10103           0     -2354.848633  -1100.000000  -59925.29687    143.336121
   10104           0     -2717.133301  -1099.999878  -59925.29687    100.596268
   10105           0      2717.133057  -1100.000122  -59549.39843     94.559998
   10106           0      2354.848633  -1100.000000  -59549.39453    143.036179
   10107           0      1992.564331  -1100.000000  -59549.39453    197.665176
   10108           0      1630.279785  -1100.000000  -59549.39453    245.558105
   10109           0      1267.995483  -1100.000000  -59549.39453    284.170410
   10110           0       905.711060  -1100.000000  -59549.39453    312.997314
   10111           0       543.426575  -1100.000000  -59549.39453    332.034271
   10112           0       181.142136  -1100.000000  -59549.39453    341.385712
   10113           0      -181.142288  -1100.000000  -59549.39453    341.134552
   10114           0      -543.426758  -1100.000000  -59549.39453    331.298035
   10115           0      -905.711182  -1100.000000  -59549.39453    311.826141
   10116           0     -1267.995605  -1100.000000  -59549.39453    282.640900
   10117           0     -1630.280029  -1100.000000  -59549.39453    243.758026
   10118           0     -1992.564453  -1100.000000  -59549.39453    195.664139
   10119           0     -2354.848633  -1100.000000  -59549.39453    140.807083
   10120           0     -2717.133301  -1099.999878  -59549.39453     91.872643
   10121           0      2717.133057  -1100.000122  -59173.49609     86.379982
   10122           0      2354.848633  -1100.000000  -59173.49218    140.398239
   10123           0      1992.564331  -1100.000000  -59173.49218    199.065613
   10124           0      1630.279785  -1100.000000  -59173.49218    249.968246
   10125           0      1267.995483  -1100.000000  -59173.49218    290.931641
   10126           0       905.711060  -1100.000000  -59173.49218    321.549530
   10127           0       543.426575  -1100.000000  -59173.49218    341.828644
   10128           0       181.142136  -1100.000000  -59173.49218    351.860474
   10129           0      -181.142288  -1100.000000  -59173.49218    351.716278
   10130           0      -543.426758  -1100.000000  -59173.49218    341.410522
   10131           0      -905.711182  -1100.000000  -59173.49218    320.899536
   10132           0     -1267.995605  -1100.000000  -59173.49218    290.113495
   10133           0     -1630.280029  -1100.000000  -59173.49218    249.053299
   10134           0     -1992.564453  -1100.000000  -59173.49218    198.102509
   10135           0     -2354.848633  -1100.000000  -59173.49218    139.310303
   10136           0     -2717.133301  -1099.999878  -59173.49609     84.594246
   10137           0      2717.133057  -1100.000122  -58797.59375     79.435532
   10138           0      2354.848633  -1100.000000  -58797.59375    138.595688
   10139           0      1992.564331  -1100.000000  -58797.59375    200.662292
   10140           0      1630.279785  -1100.000000  -58797.59375    254.059326
   10141           0      1267.995483  -1100.000000  -58797.59375    296.969299
   10142           0       905.711060  -1100.000000  -58797.59375    329.072601
   10143           0       543.426575  -1100.000000  -58797.59375    350.384583
   10144           0       181.142136  -1100.000000  -58797.59375    360.986542
   10145           0      -181.142288  -1100.000000  -58797.59375    360.939606
   10146           0      -543.426758  -1100.000000  -58797.59375    350.256287
   10147           0      -905.711182  -1100.000000  -58797.59375    328.899017
   10148           0     -1267.995605  -1100.000000  -58797.59375    296.805847
   10149           0     -1630.280029  -1100.000000  -58797.59375    253.968277
   10150           0     -1992.564453  -1100.000000  -58797.59375    200.685501
   10151           0     -2354.848633  -1100.000000  -58797.59375    138.647568
   10152           0     -2717.133301  -1099.999878  -58797.58984     78.708771
   10153           0      2717.133057  -1100.000122  -58421.68750     73.647743
   10154           0      2354.848633  -1100.000000  -58421.69140    137.459442
   10155           0      1992.564331  -1100.000000  -58421.69140    202.354492
   10156           0      1630.279785  -1100.000000  -58421.69140    257.812012
   10157           0      1267.995483  -1100.000000  -58421.69140    302.333527
   10158           0       905.711060  -1100.000000  -58421.69140    335.670227
   10159           0       543.426575  -1100.000000  -58421.69140    357.843353
   10160           0       181.142136  -1100.000000  -58421.69140    368.924469
   10161           0      -181.142288  -1100.000000  -58421.69140    368.966400
   10162           0      -543.426758  -1100.000000  -58421.69140    357.980133
   10163           0      -905.711182  -1100.000000  -58421.69140    335.934021
   10164           0     -1267.995605  -1100.000000  -58421.69140    302.774017
   10165           0     -1630.280029  -1100.000000  -58421.69140    258.487030
   10166           0     -1992.564453  -1100.000000  -58421.69140    203.308533
   10167           0     -2354.848633  -1100.000000  -58421.69140    138.627518
   10168           0     -2717.133301  -1099.999878  -58421.68750     74.122719
   10169           0      2717.133057  -1100.000122  -58045.78125     68.913177
   10170           0      2354.848633  -1100.000000  -58045.78125    136.835312
   10171           0      1992.564331  -1100.000000  -58045.78125    204.064636
   10172           0      1630.279785  -1100.000000  -58045.78125    261.221710
   10173           0      1267.995483  -1100.000000  -58045.78125    307.078369
   10174           0       905.711060  -1100.000000  -58045.78125    341.441010
   10175           0       543.426575  -1100.000000  -58045.78125    364.333649
   10176           0       181.142136  -1100.000000  -58045.78125    375.818970
   10177           0      -181.142288  -1100.000000  -58045.78125    375.942505
   10178           0      -543.426758  -1100.000000  -58045.78125    364.714142
   10179           0      -905.711182  -1100.000000  -58045.78125    342.107666
   10180           0     -1267.995605  -1100.000000  -58045.78125    308.077423
   10181           0     -1630.280029  -1100.000000  -58045.78125    262.609589
   10182           0     -1992.564453  -1100.000000  -58045.78125    205.894165
   10183           0     -2354.848633  -1100.000000  -58045.78125    139.081543
   10184           0     -2717.133301  -1099.999878  -58045.78125     70.705017
   10185           0      2717.133057  -1100.000122  -57669.87890     65.113953
   10186           0      2354.848633  -1100.000000  -57669.87890    136.591110
   10187           0      1992.564331  -1100.000000  -57669.87890    205.736435
   10188           0      1630.279785  -1100.000000  -57669.87890    264.295135
   10189           0      1267.995483  -1100.000000  -57669.87890    311.259308
   10190           0       905.711060  -1100.000000  -57669.87890    346.476929
   10191           0       543.426575  -1100.000000  -57669.87890    369.972412
   10192           0       181.142136  -1100.000000  -57669.87890    381.799927
   10193           0      -181.142288  -1100.000000  -57669.87890    381.998718
   10194           0      -543.426758  -1100.000000  -57669.87890    370.577881
   10195           0      -905.711182  -1100.000000  -57669.87890    347.516327
   10196           0     -1267.995605  -1100.000000  -57669.87890    312.776611
   10197           0     -1630.280029  -1100.000000  -57669.87890    266.347717
   10198           0     -1992.564453  -1100.000000  -57669.87890    208.388824
   10199           0     -2354.848633  -1100.000000  -57669.87890    139.869690
   10200           0     -2717.133301  -1099.999878  -57669.87890     68.303032
   10201           0      2717.133057  -1100.000122  -57293.97656     62.124798
   10202           0      2354.848633  -1100.000000  -57293.97656    136.618576
   10203           0      1992.564331  -1100.000000  -57293.97656    207.331772
   10204           0      1630.279785  -1100.000000  -57293.97656    267.047089
   10205           0      1267.995483  -1100.000000  -57293.97656    314.931488
   10206           0       905.711060  -1100.000000  -57293.97656    350.863251
   10207           0       543.426575  -1100.000000  -57293.97656    374.864990
   10208           0       181.142136  -1100.000000  -57293.97656    386.983368
   10209           0      -181.142288  -1100.000000  -57293.97656    387.251923
   10210           0      -543.426758  -1100.000000  -57293.97656    375.679230
   10211           0      -905.711182  -1100.000000  -57293.97656    352.248932
   10212           0     -1267.995605  -1100.000000  -57293.97656    316.931671
   10213           0     -1630.280029  -1100.000000  -57293.97656    269.721313
   10214           0     -1992.564453  -1100.000000  -57293.97656    210.758347
   10215           0     -2354.848633  -1100.000000  -57293.97656    140.881180
   10216           0     -2717.133301  -1099.999878  -57293.97656     66.754059
   10217           0      2717.133057  -1100.000122  -56918.07421     59.820549
   10218           0      2354.848633  -1100.000000  -56918.07421    136.832367
   10219           0      1992.564331  -1100.000000  -56918.07421    208.826645
   10220           0      1630.279785  -1100.000000  -56918.07421    269.497711
   10221           0      1267.995483  -1100.000000  -56918.07421    318.148132
   10222           0       905.711060  -1100.000000  -56918.07421    354.677643
   10223           0       543.426575  -1100.000000  -56918.07421    379.105896
   10224           0       181.142136  -1100.000000  -56918.07421    391.472473
   10225           0      -181.142288  -1100.000000  -56918.07421    391.805969
   10226           0      -543.426758  -1100.000000  -56918.07421    380.114746
   10227           0      -905.711182  -1100.000000  -56918.07421    356.386627
   10228           0     -1267.995605  -1100.000000  -56918.07421    320.600098
   10229           0     -1630.280029  -1100.000000  -56918.07421    272.755463
   10230           0     -1992.564453  -1100.000000  -56918.07421    212.983551
   10231           0     -2354.848633  -1100.000000  -56918.07421    142.031723
   10232           0     -2717.133301  -1099.999878  -56918.07421     65.899292
   10233           0      2717.133057  -1100.000122  -56542.17187     58.082153
   10234           0      2354.848633  -1100.000000  -56542.17187    137.167053
   10235           0      1992.564331  -1100.000000  -56542.17187    210.207932
   10236           0      1630.279785  -1100.000000  -56542.17187    271.669952
   10237           0      1267.995483  -1100.000000  -56542.17187    320.959381
   10238           0       905.711060  -1100.000000  -56542.17187    357.990479
   10239           0       543.426575  -1100.000000  -56542.17187    382.779083
   10240           0       181.142136  -1100.000000  -56542.17187    395.358337
   10241           0      -181.142288  -1100.000000  -56542.17187    395.752686
   10242           0      -543.426758  -1100.000000  -56542.17187    383.970215
   10243           0      -905.711182  -1100.000000  -56542.17187    360.002747
   10244           0     -1267.995605  -1100.000000  -56542.17187    323.836182
   10245           0     -1630.280029  -1100.000000  -56542.17187    275.477997
   10246           0     -1992.564453  -1100.000000  -56542.17187    215.056290
   10247           0     -2354.848633  -1100.000000  -56542.17187    143.259109
   10248           0     -2717.133301  -1099.999878  -56542.17187     65.593399
   10249           0      2717.133057  -1100.000122  -56166.26171     56.801479
   10250           0      2354.848633  -1100.000000  -56166.26171    137.573822
   10251           0      1992.564331  -1100.000000  -56166.26171    211.470245
   10252           0      1630.279785  -1100.000000  -56166.26171    273.588196
   10253           0      1267.995483  -1100.000000  -56166.26171    323.411835
   10254           0       905.711060  -1100.000000  -56166.26171    360.864777
   10255           0       543.426575  -1100.000000  -56166.26171    385.958832
   10256           0       181.142136  -1100.000000  -56166.26171    398.721191
   10257           0      -181.142288  -1100.000000  -56166.26171    399.172791
   10258           0      -543.426758  -1100.000000  -56166.26171    387.321503
   10259           0      -905.711182  -1100.000000  -56166.26171    363.163055
   10260           0     -1267.995605  -1100.000000  -56166.26171    326.689911
   10261           0     -1630.280029  -1100.000000  -56166.26171    277.917572
   10262           0     -1992.564453  -1100.000000  -56166.26171    216.976089
   10263           0     -2354.848633  -1100.000000  -56166.26171    144.519119
   10264           0     -2717.133301  -1099.999878  -56166.26562     65.710777
   10265           0      2717.133057  -1100.000122  -55790.35937     55.883640
   10266           0      2354.848633  -1100.000000  -55790.35937    138.016953
   10267           0      1992.564331  -1100.000000  -55790.35937    212.613586
   10268           0      1630.279785  -1100.000000  -55790.35937    275.276611
   10269           0      1267.995483  -1100.000000  -55790.35937    325.547852
   10270           0       905.711060  -1100.000000  -55790.35937    363.356628
   10271           0       543.426575  -1100.000000  -55790.35937    388.710327
   10272           0       181.142136  -1100.000000  -55790.35937    401.631195
   10273           0      -181.142288  -1100.000000  -55790.35937    402.136963
   10274           0      -543.426758  -1100.000000  -55790.35937    390.235474
   10275           0      -905.711182  -1100.000000  -55790.35937    365.925842
   10276           0     -1267.995605  -1100.000000  -55790.35937    329.206848
   10277           0     -1630.280029  -1100.000000  -55790.35937    280.102295
   10278           0     -1992.564453  -1100.000000  -55790.35937    218.747665
   10279           0     -2354.848633  -1100.000000  -55790.35937    145.780991
   10280           0     -2717.133301  -1099.999878  -55790.35937     66.147774
   10281           0      2717.133057  -1100.000122  -55414.46093     55.248775
   10282           0      2354.848633  -1100.000000  -55414.46093    138.470993
   10283           0      1992.564331  -1100.000000  -55414.46093    213.641632
   10284           0      1630.279785  -1100.000000  -55414.46093    276.758392
   10285           0      1267.995483  -1100.000000  -55414.46093    327.405670
   10286           0       905.711060  -1100.000000  -55414.46093    365.515350
   10287           0       543.426575  -1100.000000  -55414.46093    391.090729
   10288           0       181.142136  -1100.000000  -55414.46093    404.149475
   10289           0      -181.142288  -1100.000000  -55414.46093    404.706726
   10290           0      -543.426758  -1100.000000  -55414.46093    392.770355
   10291           0      -905.711182  -1100.000000  -55414.46093    368.342590
   10292           0     -1267.995605  -1100.000000  -55414.46093    331.428314
   10293           0     -1630.280029  -1100.000000  -55414.46093    282.058960
   10294           0     -1992.564453  -1100.000000  -55414.46093    220.378967
   10295           0     -2354.848633  -1100.000000  -55414.46093    147.024475
   10296           0     -2717.133301  -1099.999878  -55414.45703     66.821419
   10297           0      2717.133057  -1100.000122  -55038.55468     54.829681
   10298           0      2354.848633  -1100.000000  -55038.55468    138.918503
   10299           0      1992.564331  -1100.000000  -55038.55468    214.559586
   10300           0      1630.279785  -1100.000000  -55038.55468    278.055664
   10301           0      1267.995483  -1100.000000  -55038.55468    329.019287
   10302           0       905.711060  -1100.000000  -55038.55468    367.384247
   10303           0       543.426575  -1100.000000  -55038.55468    393.149597
   10304           0       181.142136  -1100.000000  -55038.55468    406.328979
   10305           0      -181.142288  -1100.000000  -55038.55468    406.935394
   10306           0      -543.426758  -1100.000000  -55038.55468    394.976898
   10307           0      -905.711182  -1100.000000  -55038.55468    370.458527
   10308           0     -1267.995605  -1100.000000  -55038.55468    333.390656
   10309           0     -1630.280029  -1100.000000  -55038.55468    283.812958
   10310           0     -1992.564453  -1100.000000  -55038.55468    221.879135
   10311           0     -2354.848633  -1100.000000  -55038.55468    148.236862
   10312           0     -2717.133301  -1099.999878  -55038.55468     67.668228
   10313           0      2717.133057  -1100.000122  -54662.65234     54.576550
   10314           0      2354.848633  -1100.000000  -54662.64843    139.345810
   10315           0      1992.564331  -1100.000000  -54662.64843    215.375168
   10316           0      1630.279785  -1100.000000  -54662.64843    279.187927
   10317           0      1267.995483  -1100.000000  -54662.64843    330.418823
   10318           0       905.711060  -1100.000000  -54662.64843    369.001007
   10319           0       543.426575  -1100.000000  -54662.64843    394.929871
   10320           0       181.142136  -1100.000000  -54662.64843    408.215515
   10321           0      -181.142288  -1100.000000  -54662.64843    408.869110
   10322           0      -543.426758  -1100.000000  -54662.64843    396.899078
   10323           0      -905.711182  -1100.000000  -54662.64843    372.312927
   10324           0     -1267.995605  -1100.000000  -54662.64843    335.126221
   10325           0     -1630.280029  -1100.000000  -54662.64843    285.386658
   10326           0     -1992.564453  -1100.000000  -54662.64843    223.259552
   10327           0     -2354.848633  -1100.000000  -54662.64843    149.409134
   10328           0     -2717.133301  -1099.999878  -54662.64843     68.639198
   10329           0      2717.133057  -1100.000122  -54286.74609     54.439568
   10330           0      2354.848633  -1100.000000  -54286.74218    139.746277
   10331           0      1992.564331  -1100.000000  -54286.74218    216.095428
   10332           0      1630.279785  -1100.000000  -54286.74218    280.173370
   10333           0      1267.995483  -1100.000000  -54286.74218    331.630707
   10334           0       905.711060  -1100.000000  -54286.74218    370.398376
   10335           0       543.426575  -1100.000000  -54286.74218    396.468597
   10336           0       181.142136  -1100.000000  -54286.74218    409.848541
   10337           0      -181.142288  -1100.000000  -54286.74218    410.547699
   10338           0      -543.426758  -1100.000000  -54286.74218    398.574860
   10339           0      -905.711182  -1100.000000  -54286.74218    373.940063
   10340           0     -1267.995605  -1100.000000  -54286.74218    336.663696
   10341           0     -1630.280029  -1100.000000  -54286.74218    286.800903
   10342           0     -1992.564453  -1100.000000  -54286.74218    224.530441
   10343           0     -2354.848633  -1100.000000  -54286.74218    150.539597
   10344           0     -2717.133301  -1099.999878  -54286.74218     69.699356
   10345           0      2717.133057  -1100.000122  -53910.84375     54.391777
   10346           0      2354.848633  -1100.000000  -53910.83984    140.117599
   10347           0      1992.564331  -1100.000000  -53910.83984    216.726379
   10348           0      1630.279785  -1100.000000  -53910.83984    281.028351
   10349           0      1267.995483  -1100.000000  -53910.83984    332.677490
   10350           0       905.711060  -1100.000000  -53910.83984    371.604340
   10351           0       543.426575  -1100.000000  -53910.83984    397.797424
   10352           0       181.142136  -1100.000000  -53910.83984    411.261505
   10353           0      -181.142288  -1100.000000  -53910.83984    412.004822
   10354           0      -543.426758  -1100.000000  -53910.83984    400.036560
   10355           0      -905.711182  -1100.000000  -53910.83984    375.369080
   10356           0     -1267.995605  -1100.000000  -53910.83984    338.027283
   10357           0     -1630.280029  -1100.000000  -53910.83984    288.074249
   10358           0     -1992.564453  -1100.000000  -53910.83984    225.700562
   10359           0     -2354.848633  -1100.000000  -53910.83984    151.627701
   10360           0     -2717.133301  -1099.999878  -53910.83984     70.814583
   10361           0      2717.133057  -1100.000122  -53534.93750     54.403835
   10362           0      2354.848633  -1100.000000  -53534.94140    140.450378
   10363           0      1992.564331  -1100.000000  -53534.94140    217.276871
   10364           0      1630.279785  -1100.000000  -53534.94140    281.766144
   10365           0      1267.995483  -1100.000000  -53534.94140    333.579010
   10366           0       905.711060  -1100.000000  -53534.94140    372.642670
   10367           0       543.426575  -1100.000000  -53534.94140    398.943237
   10368           0       181.142136  -1100.000000  -53534.94140    412.482971
   10369           0      -181.142288  -1100.000000  -53534.94140    413.269287
   10370           0      -543.426758  -1100.000000  -53534.94140    401.311798
   10371           0      -905.711182  -1100.000000  -53534.94140    376.625061
   10372           0     -1267.995605  -1100.000000  -53534.94140    339.238342
   10373           0     -1630.280029  -1100.000000  -53534.94140    289.221954
   10374           0     -1992.564453  -1100.000000  -53534.94140    226.781296
   10375           0     -2354.848633  -1100.000000  -53534.94140    152.669968
   10376           0     -2717.133301  -1099.999878  -53534.93750     71.977859
   10377           0      2717.133057  -1100.000122  -53159.03906     54.461605
   10378           0      2354.848633  -1100.000000  -53159.03906    140.746078
   10379           0      1992.564331  -1100.000000  -53159.03906    217.751923
   10380           0      1630.279785  -1100.000000  -53159.03906    282.399689
   10381           0      1267.995483  -1100.000000  -53159.03906    334.352234
   10382           0       905.711060  -1100.000000  -53159.03906    373.534271
   10383           0       543.426575  -1100.000000  -53159.03906    399.929138
   10384           0       181.142136  -1100.000000  -53159.03906    413.537567
   10385           0      -181.142288  -1100.000000  -53159.03906    414.365906
   10386           0      -543.426758  -1100.000000  -53159.03906    402.424408
   10387           0      -905.711182  -1100.000000  -53159.03906    377.729706
   10388           0     -1267.995605  -1100.000000  -53159.03906    340.315247
   10389           0     -1630.280029  -1100.000000  -53159.03906    290.258759
   10390           0     -1992.564453  -1100.000000  -53159.03906    227.780167
   10391           0     -2354.848633  -1100.000000  -53159.03906    153.669037
   10392           0     -2717.133301  -1099.999878  -53159.03906     73.167038
   10393           0      2717.133057  -1100.000122  -52783.13281     54.542511
   10394           0      2354.848633  -1100.000000  -52783.13281    141.005280
   10395           0      1992.564331  -1100.000000  -52783.13281    218.157227
   10396           0      1630.279785  -1100.000000  -52783.13281    282.939392
   10397           0      1267.995483  -1100.000000  -52783.13281    335.011536
   10398           0       905.711060  -1100.000000  -52783.13281    374.296417
   10399           0       543.426575  -1100.000000  -52783.13281    400.774780
   10400           0       181.142136  -1100.000000  -52783.13281    414.445862
   10401           0      -181.142288  -1100.000000  -52783.13281    415.315430
   10402           0      -543.426758  -1100.000000  -52783.13281    403.394379
   10403           0      -905.711182  -1100.000000  -52783.13281    378.701355
   10404           0     -1267.995605  -1100.000000  -52783.13281    341.273682
   10405           0     -1630.280029  -1100.000000  -52783.13281    291.196716
   10406           0     -1992.564453  -1100.000000  -52783.13281    228.704498
   10407           0     -2354.848633  -1100.000000  -52783.13281    154.628632
   10408           0     -2717.133301  -1099.999878  -52783.13281     74.374031
   10409           0      2717.133057  -1100.000122  -52407.22656     54.638119
   10410           0      2354.848633  -1100.000000  -52407.22656    141.225952
   10411           0      1992.564331  -1100.000000  -52407.22656    218.498672
   10412           0      1630.279785  -1100.000000  -52407.22656    283.394043
   10413           0      1267.995483  -1100.000000  -52407.22656    335.569183
   10414           0       905.711060  -1100.000000  -52407.22656    374.943634
   10415           0       543.426575  -1100.000000  -52407.22656    401.496338
   10416           0       181.142136  -1100.000000  -52407.22656    415.225098
   10417           0      -181.142288  -1100.000000  -52407.22656    416.135284
   10418           0      -543.426758  -1100.000000  -52407.22656    404.238495
   10419           0      -905.711182  -1100.000000  -52407.22656    379.555298
   10420           0     -1267.995605  -1100.000000  -52407.22656    342.127014
   10421           0     -1630.280029  -1100.000000  -52407.22656    292.045959
   10422           0     -1992.564453  -1100.000000  -52407.22656    229.562180
   10423           0     -2354.848633  -1100.000000  -52407.22656    155.549316
   10424           0     -2717.133301  -1099.999878  -52407.22656     75.590889
   10425           0      2717.133057  -1100.000122  -52031.32421     54.738338
   10426           0      2354.848633  -1100.000000  -52031.32421    141.408722
   10427           0      1992.564331  -1100.000000  -52031.32421    218.780106
   10428           0      1630.279785  -1100.000000  -52031.32421    283.771515
   10429           0      1267.995483  -1100.000000  -52031.32421    336.035248
   10430           0       905.711060  -1100.000000  -52031.32421    375.488342
   10431           0       543.426575  -1100.000000  -52031.32421    402.107574
   10432           0       181.142136  -1100.000000  -52031.32421    415.889801
   10433           0      -181.142288  -1100.000000  -52031.32421    416.840118
   10434           0      -543.426758  -1100.000000  -52031.32421    404.970825
   10435           0      -905.711182  -1100.000000  -52031.32421    380.304535
   10436           0     -1267.995605  -1100.000000  -52031.32421    342.886261
   10437           0     -1630.280029  -1100.000000  -52031.32421    292.815674
   10438           0     -1992.564453  -1100.000000  -52031.32421    230.358505
   10439           0     -2354.848633  -1100.000000  -52031.32421    156.433594
   10440           0     -2717.133301  -1099.999878  -52031.32421     76.813370
   10441           0      2717.133057  -1100.000122  -51655.42187     54.836388
   10442           0      2354.848633  -1100.000000  -51655.42578    141.553772
   10443           0      1992.564331  -1100.000000  -51655.42578    219.005356
   10444           0      1630.279785  -1100.000000  -51655.42578    284.078094
   10445           0      1267.995483  -1100.000000  -51655.42578    336.418396
   10446           0       905.711060  -1100.000000  -51655.42578    375.940491
   10447           0       543.426575  -1100.000000  -51655.42578    402.619659
   10448           0       181.142136  -1100.000000  -51655.42578    416.451782
   10449           0      -181.142288  -1100.000000  -51655.42578    417.441956
   10450           0      -543.426758  -1100.000000  -51655.42578    405.603088
   10451           0      -905.711182  -1100.000000  -51655.42578    380.959686
   10452           0     -1267.995605  -1100.000000  -51655.42578    343.560730
   10453           0     -1630.280029  -1100.000000  -51655.42578    293.513031
   10454           0     -1992.564453  -1100.000000  -51655.42578    231.098724
   10455           0     -2354.848633  -1100.000000  -51655.42578    157.283463
   10456           0     -2717.133301  -1099.999878  -51655.42187     78.037590
   10457           0      2717.133057  -1100.000122  -51279.51562     54.926552
   10458           0      2354.848633  -1100.000000  -51279.51562    141.661377
   10459           0      1992.564331  -1100.000000  -51279.51562    219.177490
   10460           0      1630.279785  -1100.000000  -51279.51562    284.318909
   10461           0      1267.995483  -1100.000000  -51279.51562    336.725372
   10462           0       905.711060  -1100.000000  -51279.51562    376.308411
   10463           0       543.426575  -1100.000000  -51279.51562    403.041840
   10464           0       181.142136  -1100.000000  -51279.51562    416.920807
   10465           0      -181.142288  -1100.000000  -51279.51562    417.950531
   10466           0      -543.426758  -1100.000000  -51279.51562    406.144623
   10467           0      -905.711182  -1100.000000  -51279.51562    381.529541
   10468           0     -1267.995605  -1100.000000  -51279.51562    344.158051
   10469           0     -1630.280029  -1100.000000  -51279.51562    294.144348
   10470           0     -1992.564453  -1100.000000  -51279.51562    231.787003
   10471           0     -2354.848633  -1100.000000  -51279.51562    158.100784
   10472           0     -2717.133301  -1099.999878  -51279.51562     79.261307
   10473           0      2717.133057  -1100.000122  -50903.60937     55.004547
   10474           0      2354.848633  -1100.000000  -50903.60937    141.731796
   10475           0      1992.564331  -1100.000000  -50903.60937    219.298965
   10476           0      1630.279785  -1100.000000  -50903.60937    284.498108
   10477           0      1267.995483  -1100.000000  -50903.60937    336.961761
   10478           0       905.711060  -1100.000000  -50903.60937    376.598663
   10479           0       543.426575  -1100.000000  -50903.60937    403.381409
   10480           0       181.142136  -1100.000000  -50903.60937    417.304626
   10481           0      -181.142288  -1100.000000  -50903.60937    418.373688
   10482           0      -543.426758  -1100.000000  -50903.60937    406.603027
   10483           0      -905.711182  -1100.000000  -50903.60937    382.021149
   10484           0     -1267.995605  -1100.000000  -50903.60937    344.684296
   10485           0     -1630.280029  -1100.000000  -50903.60937    294.714386
   10486           0     -1992.564453  -1100.000000  -50903.60937    232.426865
   10487           0     -2354.848633  -1100.000000  -50903.60937    158.887283
   10488           0     -2717.133301  -1099.999878  -50903.60937     80.482674
   10489           0      2717.133057  -1100.000122  -50527.71093     55.066822
   10490           0      2354.848633  -1100.000000  -50527.70703    141.765213
   10491           0      1992.564331  -1100.000000  -50527.70703    219.371628
   10492           0      1630.279785  -1100.000000  -50527.70703    284.618896
   10493           0      1267.995483  -1100.000000  -50527.70703    337.131714
   10494           0       905.711060  -1100.000000  -50527.70703    376.816193
   10495           0       543.426575  -1100.000000  -50527.70703    403.643982
   10496           0       181.142136  -1100.000000  -50527.70703    417.609253
   10497           0      -181.142288  -1100.000000  -50527.70703    418.717529
   10498           0      -543.426758  -1100.000000  -50527.70703    406.984222
   10499           0      -905.711182  -1100.000000  -50527.70703    382.439880
   10500           0     -1267.995605  -1100.000000  -50527.70703    345.144318
   10501           0     -1630.280029  -1100.000000  -50527.70703    295.227020
   10502           0     -1992.564453  -1100.000000  -50527.70703    233.021057
   10503           0     -2354.848633  -1100.000000  -50527.70703    159.644272
   10504           0     -2717.133301  -1099.999878  -50527.71093     81.700676
   10505           0      2717.133057  -1100.000122  -50151.80468     55.110619
   10506           0      2354.848633  -1100.000000  -50151.80078    141.761597
   10507           0      1992.564331  -1100.000000  -50151.80078    219.396790
   10508           0      1630.279785  -1100.000000  -50151.80078    284.683624
   10509           0      1267.995483  -1100.000000  -50151.80078    337.238312
   10510           0       905.711060  -1100.000000  -50151.80078    376.964844
   10511           0       543.426575  -1100.000000  -50151.80078    403.833771
   10512           0       181.142136  -1100.000000  -50151.80078    417.838989
   10513           0      -181.142288  -1100.000000  -50151.80078    418.986511
   10514           0      -543.426758  -1100.000000  -50151.80078    407.292603
   10515           0      -905.711182  -1100.000000  -50151.80078    382.789734
   10516           0     -1267.995605  -1100.000000  -50151.80078    345.541595
   10517           0     -1630.280029  -1100.000000  -50151.80078    295.685272
   10518           0     -1992.564453  -1100.000000  -50151.80078    233.571686
   10519           0     -2354.848633  -1100.000000  -50151.80078    160.372910
   10520           0     -2717.133301  -1099.999878  -50151.80468     82.914513
   10521           0      2717.133057  -1100.000122  -49775.90234     55.133659
   10522           0      2354.848633  -1100.000000  -49775.90234    141.720825
   10523           0      1992.564331  -1100.000000  -49775.90234    219.375290
   10524           0      1630.279785  -1100.000000  -49775.90234    284.693604
   10525           0      1267.995483  -1100.000000  -49775.90234    337.283630
   10526           0       905.711060  -1100.000000  -49775.90234    377.046936
   10527           0       543.426575  -1100.000000  -49775.90234    403.953430
   10528           0       181.142136  -1100.000000  -49775.90234    417.996857
   10529           0      -181.142288  -1100.000000  -49775.90234    419.183563
   10530           0      -543.426758  -1100.000000  -49775.90234    407.530945
   10531           0      -905.711182  -1100.000000  -49775.90234    383.073425
   10532           0     -1267.995605  -1100.000000  -49775.90234    345.878540
   10533           0     -1630.280029  -1100.000000  -49775.90234    296.090973
   10534           0     -1992.564453  -1100.000000  -49775.90234    234.080200
   10535           0     -2354.848633  -1100.000000  -49775.90234    161.073914
   10536           0     -2717.133301  -1099.999878  -49775.90234     84.123703
   10537           0      2717.133057  -1100.000122  -49400.00000     55.134041
   10538           0      2354.848633  -1100.000000  -49400.00000    141.642487
   10539           0      1992.564331  -1100.000000  -49400.00000    219.307327
   10540           0      1630.279785  -1100.000000  -49400.00000    284.649658
   10541           0      1267.995483  -1100.000000  -49400.00000    337.268738
   10542           0       905.711060  -1100.000000  -49400.00000    377.063904
   10543           0       543.426575  -1100.000000  -49400.00000    404.004456
   10544           0       181.142136  -1100.000000  -49400.00000    418.084290
   10545           0      -181.142288  -1100.000000  -49400.00000    419.310242
   10546           0      -543.426758  -1100.000000  -49400.00000    407.700806
   10547           0      -905.711182  -1100.000000  -49400.00000    383.292358
   10548           0     -1267.995605  -1100.000000  -49400.00000    346.156342
   10549           0     -1630.279907  -1100.000000  -49400.00000    296.445160
   10550           0     -1992.564331  -1100.000000  -49400.00000    234.547287
   10551           0     -2354.848633  -1100.000000  -49400.00000    161.747833
   10552           0     -2717.133301  -1099.999878  -49400.00000     85.327942
   10553           0      2717.133057  -1100.000122  -49024.09375     55.110229
   10554           0      2354.848633  -1100.000000  -49024.09375    141.526062
   10555           0      1992.564331  -1100.000000  -49024.09375    219.192642
   10556           0      1630.279785  -1100.000000  -49024.09375    284.551575
   10557           0      1267.995483  -1100.000000  -49024.09375    337.193451
   10558           0       905.711060  -1100.000000  -49024.09375    377.015625
   10559           0       543.426575  -1100.000000  -49024.09375    403.986969
   10560           0       181.142136  -1100.000000  -49024.09375    418.101532
   10561           0      -181.142288  -1100.000000  -49024.09375    419.366821
   10562           0      -543.426758  -1100.000000  -49024.09375    407.802460
   10563           0      -905.711182  -1100.000000  -49024.09375    383.446838
   10564           0     -1267.995605  -1100.000000  -49024.09375    346.375183
   10565           0     -1630.279785  -1100.000000  -49024.09375    296.748047
   10566           0     -1992.564209  -1100.000000  -49024.09375    234.973236
   10567           0     -2354.849121  -1100.000000  -49024.09375    162.394730
   10568           0     -2717.133301  -1099.999878  -49024.09375     86.527046
   10569           0      2717.133057  -1100.000122  -48648.18750     55.060963
   10570           0      2354.848633  -1100.000000  -48648.18359    141.370773
   10571           0      1992.564331  -1100.000000  -48648.18359    219.030396
   10572           0      1630.279785  -1100.000000  -48648.18359    284.398529
   10573           0      1267.995483  -1100.000000  -48648.18359    337.056854
   10574           0       905.711060  -1100.000000  -48648.18359    376.901062
   10575           0       543.426575  -1100.000000  -48648.18359    403.899750
   10576           0       181.142136  -1100.000000  -48648.18359    418.047363
   10577           0      -181.142288  -1100.000000  -48648.18359    419.352020
   10578           0      -543.426758  -1100.000000  -48648.18359    407.834686
   10579           0      -905.711182  -1100.000000  -48648.18359    383.535736
   10580           0     -1267.995605  -1100.000000  -48648.18359    346.534241
   10581           0     -1630.279785  -1100.000000  -48648.18359    296.998993
   10582           0     -1992.564209  -1100.000000  -48648.18359    235.357498
   10583           0     -2354.849121  -1100.000000  -48648.18359    163.014465
   10584           0     -2717.133301  -1099.999878  -48648.18750     87.720901
   10585           0      2717.133057  -1100.000122  -48272.28906     54.985294
   10586           0      2354.848633  -1100.000000  -48272.28515    141.175461
   10587           0      1992.564331  -1100.000000  -48272.28515    218.819305
   10588           0      1630.279785  -1100.000000  -48272.28515    284.188751
   10589           0      1267.995483  -1100.000000  -48272.28515    336.856903
   10590           0       905.711060  -1100.000000  -48272.28515    376.717865
   10591           0       543.426575  -1100.000000  -48272.28515    403.740356
   10592           0       181.142136  -1100.000000  -48272.28515    417.919159
   10593           0      -181.142288  -1100.000000  -48272.28515    419.263367
   10594           0      -543.426758  -1100.000000  -48272.28515    407.795044
   10595           0      -905.711182  -1100.000000  -48272.28515    383.556793
   10596           0     -1267.995605  -1100.000000  -48272.28515    346.631561
   10597           0     -1630.279785  -1100.000000  -48272.28515    297.196259
   10598           0     -1992.564209  -1100.000000  -48272.28515    235.698959
   10599           0     -2354.849121  -1100.000000  -48272.28515    163.606415
   10600           0     -2717.133301  -1099.999878  -48272.28906     88.909561
   10601           0      2717.133057  -1100.000122  -47896.38671     54.881996
   10602           0      2354.848633  -1100.000000  -47896.38281    140.938995
   10603           0      1992.564331  -1100.000000  -47896.38281    218.557388
   10604           0      1630.279785  -1100.000000  -47896.38281    283.919586
   10605           0      1267.995483  -1100.000000  -47896.38281    336.590424
   10606           0       905.711060  -1100.000000  -47896.38281    376.462555
   10607           0       543.426575  -1100.000000  -47896.38281    403.504852
   10608           0       181.142136  -1100.000000  -47896.38281    417.712921
   10609           0      -181.142288  -1100.000000  -47896.38281    419.096710
   10610           0      -543.426758  -1100.000000  -47896.38281    407.679626
   10611           0      -905.711182  -1100.000000  -47896.38281    383.506439
   10612           0     -1267.995605  -1100.000000  -47896.38281    346.663910
   10613           0     -1630.279785  -1100.000000  -47896.38281    297.337463
   10614           0     -1992.564209  -1100.000000  -47896.38281    235.995850
   10615           0     -2354.849121  -1100.000000  -47896.38281    164.169800
   10616           0     -2717.133301  -1099.999878  -47896.38281     90.092995
   10617           0      2717.133057  -1100.000122  -47520.47656     54.750992
   10618           0      2354.848633  -1100.000000  -47520.47656    140.659912
   10619           0      1992.564331  -1100.000000  -47520.47656    218.242065
   10620           0      1630.279785  -1100.000000  -47520.47656    283.587799
   10621           0      1267.995483  -1100.000000  -47520.47656    336.253204
   10622           0       905.711060  -1100.000000  -47520.47656    376.130127
   10623           0       543.426575  -1100.000000  -47520.47656    403.187897
   10624           0       181.142136  -1100.000000  -47520.47656    417.423004
   10625           0      -181.142288  -1100.000000  -47520.47656    418.846405
   10626           0      -543.426758  -1100.000000  -47520.47656    407.482971
   10627           0      -905.711182  -1100.000000  -47520.47656    383.379517
   10628           0     -1267.995605  -1100.000000  -47520.47656    346.626923
   10629           0     -1630.279785  -1100.000000  -47520.47656    297.418884
   10630           0     -1992.564209  -1100.000000  -47520.47656    236.245590
   10631           0     -2354.849121  -1100.000000  -47520.47656    164.703278
   10632           0     -2717.133301  -1099.999878  -47520.47656     91.271484
   10633           0      2717.133057  -1100.000122  -47144.57812     54.593212
   10634           0      2354.848633  -1100.000000  -47144.57812    140.335999
   10635           0      1992.564331  -1100.000000  -47144.57812    217.870239
   10636           0      1630.279785  -1100.000000  -47144.57812    283.188629
   10637           0      1267.995483  -1100.000000  -47144.57812    335.839600
   10638           0       905.711060  -1100.000000  -47144.57812    375.714142
   10639           0       543.426575  -1100.000000  -47144.57812    402.782410
   10640           0       181.142136  -1100.000000  -47144.57812    417.041962
   10641           0      -181.142288  -1100.000000  -47144.57812    418.505035
   10642           0      -543.426758  -1100.000000  -47144.57812    407.197937
   10643           0      -905.711182  -1100.000000  -47144.57812    383.169617
   10644           0     -1267.995605  -1100.000000  -47144.57812    346.514801
   10645           0     -1630.279785  -1100.000000  -47144.57812    297.435913
   10646           0     -1992.564209  -1100.000000  -47144.57812    236.444870
   10647           0     -2354.849121  -1100.000000  -47144.57812    165.205231
   10648           0     -2717.133301  -1099.999878  -47144.57812     92.445229
   10649           0      2717.133057  -1100.000122  -46768.67968     54.406879
   10650           0      2354.848633  -1100.000000  -46768.68359    139.965637
   10651           0      1992.564331  -1100.000000  -46768.68359    217.437714
   10652           0      1630.279785  -1100.000000  -46768.68359    282.716644
   10653           0      1267.995483  -1100.000000  -46768.68359    335.342651
   10654           0       905.711060  -1100.000000  -46768.68359    375.206573
   10655           0       543.426575  -1100.000000  -46768.68359    402.279541
   10656           0       181.142136  -1100.000000  -46768.68359    416.560547
   10657           0      -181.142288  -1100.000000  -46768.68359    418.063263
   10658           0      -543.426758  -1100.000000  -46768.68359    406.815430
   10659           0      -905.711182  -1100.000000  -46768.68359    382.868225
   10660           0     -1267.995605  -1100.000000  -46768.68359    346.320282
   10661           0     -1630.279785  -1100.000000  -46768.68359    297.382782
   10662           0     -1992.564209  -1100.000000  -46768.68359    236.589539
   10663           0     -2354.849121  -1100.000000  -46768.68359    165.673630
   10664           0     -2717.133301  -1099.999878  -46768.67968     93.614990
   10665           0      2717.133057  -1100.000122  -46392.77343     54.194885
   10666           0      2354.848633  -1100.000000  -46392.77343    139.546249
   10667           0      1992.564331  -1100.000000  -46392.77343    216.940033
   10668           0      1630.279785  -1100.000000  -46392.77343    282.164856
   10669           0      1267.995483  -1100.000000  -46392.77343    334.753754
   10670           0       905.711060  -1100.000000  -46392.77343    374.597260
   10671           0       543.426575  -1100.000000  -46392.77343    401.668243
   10672           0       181.142136  -1100.000000  -46392.77343    415.967255
   10673           0      -181.142288  -1100.000000  -46392.77343    417.509460
   10674           0      -543.426758  -1100.000000  -46392.77343    406.324341
   10675           0      -905.711182  -1100.000000  -46392.77343    382.465149
   10676           0     -1267.995605  -1100.000000  -46392.77343    346.034424
   10677           0     -1630.279785  -1100.000000  -46392.77343    297.251862
   10678           0     -1992.564209  -1100.000000  -46392.77343    236.674622
   10679           0     -2354.849121  -1100.000000  -46392.77343    166.106079
   10680           0     -2717.133301  -1099.999878  -46392.77343     94.781189
   10681           0      2717.133057  -1100.000122  -46016.86718     53.959373
   10682           0      2354.848633  -1100.000000  -46016.86328    139.075699
   10683           0      1992.564331  -1100.000000  -46016.86328    216.371185
   10684           0      1630.279785  -1100.000000  -46016.86328    281.525391
   10685           0      1267.995483  -1100.000000  -46016.86328    334.062500
   10686           0       905.711060  -1100.000000  -46016.86328    373.874207
   10687           0       543.426575  -1100.000000  -46016.86328    400.935181
   10688           0       181.142136  -1100.000000  -46016.86328    415.247925
   10689           0      -181.142288  -1100.000000  -46016.86328    416.829498
   10690           0      -543.426758  -1100.000000  -46016.86328    405.710999
   10691           0      -905.711182  -1100.000000  -46016.86328    381.947754
   10692           0     -1267.995605  -1100.000000  -46016.86328    345.646240
   10693           0     -1630.279785  -1100.000000  -46016.86328    297.034882
   10694           0     -1992.564209  -1100.000000  -46016.86328    236.693436
   10695           0     -2354.849121  -1100.000000  -46016.86328    166.500061
   10696           0     -2717.133301  -1099.999878  -46016.86718     95.946159
   10697           0      2717.133057  -1100.000122  -45640.96093     53.706760
   10698           0      2354.848633  -1100.000000  -45640.95703    138.550293
   10699           0      1992.564331  -1100.000000  -45640.95703    215.725388
   10700           0      1630.279785  -1100.000000  -45640.95703    280.788361
   10701           0      1267.995483  -1100.000000  -45640.95703    333.256439
   10702           0       905.711060  -1100.000000  -45640.95703    373.022827
   10703           0       543.426575  -1100.000000  -45640.95703    400.064209
   10704           0       181.142136  -1100.000000  -45640.95703    414.385773
   10705           0      -181.142288  -1100.000000  -45640.95703    416.006378
   10706           0      -543.426758  -1100.000000  -45640.95703    404.958984
   10707           0      -905.711182  -1100.000000  -45640.95703    381.301056
   10708           0     -1267.995605  -1100.000000  -45640.95703    345.142578
   10709           0     -1630.279785  -1100.000000  -45640.95703    296.721100
   10710           0     -1992.564209  -1100.000000  -45640.95703    236.640030
   10711           0     -2354.849121  -1100.000000  -45640.95703    166.851074
   10712           0     -2717.133301  -1099.999878  -45640.96093     97.110542
   10713           0      2717.133057  -1100.000122  -45265.05468     53.436268
   10714           0      2354.848633  -1100.000000  -45265.04687    137.968430
   10715           0      1992.564331  -1100.000000  -45265.04687    214.995193
   10716           0      1630.279785  -1100.000000  -45265.04687    279.941833
   10717           0      1267.995483  -1100.000000  -45265.04687    332.320862
   10718           0       905.711060  -1100.000000  -45265.04687    372.025543
   10719           0       543.426575  -1100.000000  -45265.04687    399.036133
   10720           0       181.142136  -1100.000000  -45265.04687    413.360413
   10721           0      -181.142288  -1100.000000  -45265.04687    415.019653
   10722           0      -543.426758  -1100.000000  -45265.04687    404.048615
   10723           0      -905.711182  -1100.000000  -45265.04687    380.506836
   10724           0     -1267.995605  -1100.000000  -45265.04687    344.508087
   10725           0     -1630.279785  -1100.000000  -45265.04687    296.297852
   10726           0     -1992.564209  -1100.000000  -45265.04687    236.505539
   10727           0     -2354.849121  -1100.000000  -45265.04687    167.158295
   10728           0     -2717.133301  -1099.999878  -45265.05468     98.280670
   10729           0      2717.133057  -1100.000122  -44889.15234     53.166321
   10730           0      2354.848633  -1100.000000  -44889.14843    137.331940
   10731           0      1992.564331  -1100.000000  -44889.14843    214.170715
   10732           0      1630.279785  -1100.000000  -44889.14843    278.973663
   10733           0      1267.995483  -1100.000000  -44889.14843    331.238403
   10734           0       905.711060  -1100.000000  -44889.14843    370.862213
   10735           0       543.426575  -1100.000000  -44889.14843    397.828369
   10736           0       181.142136  -1100.000000  -44889.14843    412.148163
   10737           0      -181.142288  -1100.000000  -44889.14843    413.845398
   10738           0      -543.426758  -1100.000000  -44889.14843    402.956909
   10739           0      -905.711182  -1100.000000  -44889.14843    379.544189
   10740           0     -1267.995605  -1100.000000  -44889.14843    343.724213
   10741           0     -1630.279785  -1100.000000  -44889.14843    295.751953
   10742           0     -1992.564209  -1100.000000  -44889.14843    236.278824
   10743           0     -2354.849121  -1100.000000  -44889.14843    167.418198
   10744           0     -2717.133301  -1099.999878  -44889.15234     99.451935
   10745           0      2717.133057  -1100.000122  -44513.25000     52.906521
   10746           0      2354.848633  -1100.000000  -44513.25390    136.631409
   10747           0      1992.564331  -1100.000000  -44513.25390    213.245377
   10748           0      1630.279785  -1100.000000  -44513.25390    277.867706
   10749           0      1267.995483  -1100.000000  -44513.25390    329.988983
   10750           0       905.711060  -1100.000000  -44513.25390    369.508514
   10751           0       543.426575  -1100.000000  -44513.25390    396.414154
   10752           0       181.142136  -1100.000000  -44513.25390    410.720734
   10753           0      -181.142288  -1100.000000  -44513.25390    412.455170
   10754           0      -543.426758  -1100.000000  -44513.25390    401.656494
   10755           0      -905.711182  -1100.000000  -44513.25390    378.387970
   10756           0     -1267.995605  -1100.000000  -44513.25390    342.769836
   10757           0     -1630.279785  -1100.000000  -44513.25390    295.065277
   10758           0     -1992.564209  -1100.000000  -44513.25390    235.952805
   10759           0     -2354.849121  -1100.000000  -44513.25390    167.624741
   10760           0     -2717.133301  -1099.999878  -44513.25000    100.643196
   10761           0      2717.133057  -1100.000122  -44137.35156     52.679710
   10762           0      2354.848633  -1100.000000  -44137.34765    135.870392
   10763           0      1992.564331  -1100.000000  -44137.34765    212.207733
   10764           0      1630.279785  -1100.000000  -44137.34765    276.606018
   10765           0      1267.995483  -1100.000000  -44137.34765    328.548340
   10766           0       905.711060  -1100.000000  -44137.34765    367.935760
   10767           0       543.426575  -1100.000000  -44137.34765    394.761200
   10768           0       181.142136  -1100.000000  -44137.34765    409.044220
   10769           0      -181.142288  -1100.000000  -44137.34765    410.814941
   10770           0      -543.426758  -1100.000000  -44137.34765    400.114410
   10771           0      -905.711182  -1100.000000  -44137.34765    377.008667
   10772           0     -1267.995605  -1100.000000  -44137.34765    341.619202
   10773           0     -1630.279785  -1100.000000  -44137.34765    294.219147
   10774           0     -1992.564209  -1100.000000  -44137.34765    235.513214
   10775           0     -2354.849121  -1100.000000  -44137.34765    167.778229
   10776           0     -2717.133301  -1099.999878  -44137.34765    101.858521
   10777           0      2717.133057  -1100.000122  -43761.44531     52.513309
   10778           0      2354.848633  -1100.000000  -43761.44140    135.056656
   10779           0      1992.564331  -1100.000000  -43761.44140    211.045349
   10780           0      1630.279785  -1100.000000  -43761.44140    275.169312
   10781           0      1267.995483  -1100.000000  -43761.44140    326.889374
   10782           0       905.711060  -1100.000000  -43761.44140    366.111176
   10783           0       543.426575  -1100.000000  -43761.44531    392.833099
   10784           0       181.142136  -1100.000000  -43761.44531    407.079865
   10785           0      -181.142288  -1100.000000  -43761.44531    408.885742
   10786           0      -543.426758  -1100.000000  -43761.44531    398.293610
   10787           0      -905.711182  -1100.000000  -43761.44531    375.371460
   10788           0     -1267.995605  -1100.000000  -43761.44531    340.244202
   10789           0     -1630.279785  -1100.000000  -43761.44531    293.192413
   10790           0     -1992.564209  -1100.000000  -43761.44531    234.945663
   10791           0     -2354.849121  -1100.000000  -43761.44531    167.878296
   10792           0     -2717.133301  -1099.999878  -43761.44531    103.100464
   10793           0      2717.133057  -1100.000122  -43385.54296     52.449059
   10794           0      2354.848633  -1100.000000  -43385.54296    134.187408
   10795           0      1992.564331  -1100.000000  -43385.54687    209.749741
   10796           0      1630.279785  -1100.000000  -43385.54687    273.534943
   10797           0      1267.995483  -1100.000000  -43385.54687    324.981415
   10798           0       905.711060  -1100.000000  -43385.54687    363.997162
   10799           0       543.426575  -1100.000000  -43385.54687    390.587341
   10800           0       181.142136  -1100.000000  -43385.54687    404.782928
   10801           0      -181.142288  -1100.000000  -43385.54687    406.622070
   10802           0      -543.426758  -1100.000000  -43385.54687    396.151550
   10803           0      -905.711182  -1100.000000  -43385.54687    373.438690
   10804           0     -1267.995605  -1100.000000  -43385.54687    338.612274
   10805           0     -1630.279785  -1100.000000  -43385.54687    291.959167
   10806           0     -1992.564209  -1100.000000  -43385.54687    234.240128
   10807           0     -2354.849121  -1100.000000  -43385.55078    167.922348
   10808           0     -2717.133301  -1099.999878  -43385.54687    104.408424
   10809           0      2717.133057  -1100.000122  -43009.64453     52.550121
   10810           0      2354.848633  -1100.000000  -43009.65234    133.270996
   10811           0      1992.564331  -1100.000000  -43009.65234    208.309479
   10812           0      1630.279785  -1100.000000  -43009.65234    271.678101
   10813           0      1267.995483  -1100.000000  -43009.65234    322.787933
   10814           0       905.711060  -1100.000000  -43009.65234    361.548920
   10815           0       543.426575  -1100.000000  -43009.65234    387.973541
   10816           0       181.142136  -1100.000000  -43009.65234    402.099670
   10817           0      -181.142288  -1100.000000  -43009.65234    403.970673
   10818           0      -543.426758  -1100.000000  -43009.65234    393.635559
   10819           0      -905.711182  -1100.000000  -43009.65234    371.162598
   10820           0     -1267.995605  -1100.000000  -43009.65234    336.683868
   10821           0     -1630.279785  -1100.000000  -43009.65234    290.493347
   10822           0     -1992.564209  -1100.000000  -43009.65234    233.380829
   10823           0     -2354.849121  -1100.000000  -43009.65234    167.912628
   10824           0     -2717.133301  -1099.999878  -43009.64453    105.787155
   10825           0      2717.133057  -1100.000122  -42633.74218     52.881256
   10826           0      2354.848633  -1100.000000  -42633.74218    132.327408
   10827           0      1992.564331  -1100.000000  -42633.74218    206.713501
   10828           0      1630.279785  -1100.000000  -42633.74218    269.570801
   10829           0      1267.995483  -1100.000000  -42633.74218    320.267731
   10830           0       905.711060  -1100.000000  -42633.74218    358.715027
   10831           0       543.426575  -1100.000000  -42633.74218    384.933258
   10832           0       181.142136  -1100.000000  -42633.74218    398.968170
   10833           0      -181.142288  -1100.000000  -42633.74218    400.868744
   10834           0      -543.426758  -1100.000000  -42633.74218    390.686493
   10835           0      -905.711182  -1100.000000  -42633.74218    368.492096
   10836           0     -1267.995605  -1100.000000  -42633.74218    334.416748
   10837           0     -1630.279785  -1100.000000  -42633.74218    288.764191
   10838           0     -1992.564209  -1100.000000  -42633.74218    232.353653
   10839           0     -2354.849121  -1100.000000  -42633.74218    167.861908
   10840           0     -2717.133301  -1099.999878  -42633.74218    107.280586
   10841           0      2717.133057  -1100.000122  -42257.83203     53.541290
   10842           0      2354.848633  -1100.000000  -42257.83593    131.383392
   10843           0      1992.564331  -1100.000000  -42257.83593    204.954788
   10844           0      1630.279785  -1100.000000  -42257.83593    267.184296
   10845           0      1267.995483  -1100.000000  -42257.83593    317.375732
   10846           0       905.711060  -1100.000000  -42257.83593    355.438202
   10847           0       543.426575  -1100.000000  -42257.83593    381.400848
   10848           0       181.142136  -1100.000000  -42257.83593    395.318298
   10849           0      -181.142288  -1100.000000  -42257.83593    397.245911
   10850           0      -543.426758  -1100.000000  -42257.83593    387.238495
   10851           0      -905.711182  -1100.000000  -42257.83593    365.366974
   10852           0     -1267.995605  -1100.000000  -42257.83593    331.763550
   10853           0     -1630.279785  -1100.000000  -42257.83593    286.739441
   10854           0     -1992.564209  -1100.000000  -42257.83593    231.147705
   10855           0     -2354.849121  -1100.000000  -42257.83593    167.782318
   10856           0     -2717.133301  -1099.999878  -42257.83593    108.920235
   10857           0      2717.133057  -1100.000122  -41881.92187     54.645714
   10858           0      2354.848633  -1100.000000  -41881.91796    130.472229
   10859           0      1992.564331  -1100.000000  -41881.91796    203.030716
   10860           0      1630.279785  -1100.000000  -41881.91796    264.488312
   10861           0      1267.995483  -1100.000000  -41881.91796    314.061646
   10862           0       905.711060  -1100.000000  -41881.91796    351.653168
   10863           0       543.426575  -1100.000000  -41881.91796    377.300934
   10864           0       181.142136  -1100.000000  -41881.91796    391.069458
   10865           0      -181.142288  -1100.000000  -41881.91796    393.021301
   10866           0      -543.426758  -1100.000000  -41881.91796    383.214600
   10867           0      -905.711182  -1100.000000  -41881.91796    361.720581
   10868           0     -1267.995605  -1100.000000  -41881.91796    328.671356
   10869           0     -1630.279785  -1100.000000  -41881.91796    284.386139
   10870           0     -1992.564209  -1100.000000  -41881.91796    229.754013
   10871           0     -2354.849121  -1100.000000  -41881.91796    167.696487
   10872           0     -2717.133301  -1099.999878  -41881.92578    110.772057
   10873           0      2717.133057  -1100.000122  -41506.02343     56.339848
   10874           0      2354.848633  -1100.000000  -41506.02343    129.647324
   10875           0      1992.564331  -1100.000000  -41506.02343    200.943039
   10876           0      1630.279785  -1100.000000  -41506.02343    261.451721
   10877           0      1267.995483  -1100.000000  -41506.02343    310.269379
   10878           0       905.711060  -1100.000000  -41506.02343    347.285522
   10879           0       543.426575  -1100.000000  -41506.02343    372.546692
   10880           0       181.142136  -1100.000000  -41506.02343    386.128510
   10881           0      -181.142288  -1100.000000  -41506.02343    388.101501
   10882           0      -543.426758  -1100.000000  -41506.02343    378.527344
   10883           0      -905.711182  -1100.000000  -41506.02343    357.476990
   10884           0     -1267.995605  -1100.000000  -41506.02343    325.082153
   10885           0     -1630.279785  -1100.000000  -41506.02343    281.669739
   10886           0     -1992.564209  -1100.000000  -41506.02343    228.168976
   10887           0     -2354.849121  -1100.000000  -41506.02343    167.638336
   10888           0     -2717.133301  -1099.999878  -41506.02343    112.902573
   10889           0      2717.133057  -1100.000122  -41130.12500     58.777309
   10890           0      2354.848633  -1100.000000  -41130.13281    128.983704
   10891           0      1992.564331  -1100.000000  -41130.13281    198.702866
   10892           0      1630.279785  -1100.000000  -41130.13281    258.044830
   10893           0      1267.995483  -1100.000000  -41130.13281    305.938660
   10894           0       905.711060  -1100.000000  -41130.13281    342.252594
   10895           0       543.426575  -1100.000000  -41130.13281    367.040466
   10896           0       181.142136  -1100.000000  -41130.13281    380.390076
   10897           0      -181.142288  -1100.000000  -41130.13281    382.380890
   10898           0      -543.426758  -1100.000000  -41130.13281    373.078339
   10899           0      -905.711182  -1100.000000  -41130.13281    352.552521
   10900           0     -1267.995605  -1100.000000  -41130.13281    320.933746
   10901           0     -1630.279785  -1100.000000  -41130.13281    278.557281
   10902           0     -1992.564209  -1100.000000  -41130.13281    226.396194
   10903           0     -2354.849121  -1100.000000  -41130.13281    167.658676
   10904           0     -2717.133301  -1099.999878  -41130.12500    115.403290
   10905           0      2717.133057  -1100.000122  -40754.21875     62.122162
   10906           0      2354.848633  -1100.000000  -40754.22656    128.580399
   10907           0      1992.564331  -1100.000000  -40754.22656    196.334671
   10908           0      1630.279785  -1100.000000  -40754.22656    254.240616
   10909           0      1267.995483  -1100.000000  -40754.22656    301.005371
   10910           0       905.711060  -1100.000000  -40754.22656    336.462585
   10911           0       543.426575  -1100.000000  -40754.22656    360.672150
   10912           0       181.142136  -1100.000000  -40754.22656    373.734985
   10913           0      -181.142288  -1100.000000  -40754.22656    375.740234
   10914           0      -543.426758  -1100.000000  -40754.22656    366.757477
   10915           0      -905.711182  -1100.000000  -40754.22656    346.855042
   10916           0     -1267.995605  -1100.000000  -40754.22656    316.161041
   10917           0     -1630.279785  -1100.000000  -40754.22656    275.019196
   10918           0     -1992.564209  -1100.000000  -40754.22656    224.451828
   10919           0     -2354.849121  -1100.000000  -40754.22656    167.827423
   10920           0     -2717.133301  -1099.999878  -40754.21875    118.381416
   10921           0      2717.133057  -1100.000122  -40378.31640     66.531586
   10922           0      2354.848633  -1100.000000  -40378.31640    128.565933
   10923           0      1992.564331  -1100.000000  -40378.31640    193.879486
   10924           0      1630.279785  -1100.000000  -40378.31640    250.018402
   10925           0      1267.995483  -1100.000000  -40378.31640    295.402435
   10926           0       905.711060  -1100.000000  -40378.31640    329.814911
   10927           0       543.426575  -1100.000000  -40378.31640    353.318878
   10928           0       181.142136  -1100.000000  -40378.31640    366.029083
   10929           0      -181.142288  -1100.000000  -40378.31640    368.045868
   10930           0      -543.426758  -1100.000000  -40378.31640    359.442413
   10931           0      -905.711182  -1100.000000  -40378.31640    340.284760
   10932           0     -1267.995605  -1100.000000  -40378.31640    310.697388
   10933           0     -1630.279785  -1100.000000  -40378.31640    271.032990
   10934           0     -1992.564209  -1100.000000  -40378.31640    222.367676
   10935           0     -2354.849121  -1100.000000  -40378.31640    168.237717
   10936           0     -2717.133301  -1099.999878  -40378.31640    121.964378
   10937           0      2717.133057  -1100.000122  -40002.40625     72.143990
   10938           0      2354.848633  -1100.000000  -40002.41015    129.099030
   10939           0      1992.564331  -1100.000000  -40002.41015    191.400070
   10940           0      1630.279785  -1100.000000  -40002.41015    245.366196
   10941           0      1267.995483  -1100.000000  -40002.41015    289.061859
   10942           0       905.711060  -1100.000000  -40002.41015    322.200073
   10943           0       543.426575  -1100.000000  -40002.41015    344.843933
   10944           0       181.142136  -1100.000000  -40002.41015    357.122589
   10945           0      -181.142288  -1100.000000  -40002.41015    359.148468
   10946           0      -543.426758  -1100.000000  -40002.41015    350.998718
   10947           0      -905.711182  -1100.000000  -40002.41015    332.735413
   10948           0     -1267.995605  -1100.000000  -40002.41015    304.477783
   10949           0     -1630.279785  -1100.000000  -40002.41015    266.586853
   10950           0     -1992.564209  -1100.000000  -40002.41015    220.196915
   10951           0     -2354.849121  -1100.000000  -40002.41015    169.009338
   10952           0     -2717.133301  -1099.999878  -40002.40625    126.294777
   10953           0      2717.133057  -1100.000122  -39626.50390     79.066277
   10954           0      2354.848633  -1100.000000  -39626.50000    130.365280
   10955           0      1992.564331  -1100.000000  -39626.50000    188.984833
   10956           0      1630.279785  -1100.000000  -39626.50000    240.285324
   10957           0      1267.995483  -1100.000000  -39626.50000    281.916595
   10958           0       905.711060  -1100.000000  -39626.50000    313.500793
   10959           0       543.426575  -1100.000000  -39626.50000    335.096497
   10960           0       181.142136  -1100.000000  -39626.50000    346.848602
   10961           0      -181.142288  -1100.000000  -39626.50000    348.882904
   10962           0      -543.426758  -1100.000000  -39626.50000    341.279938
   10963           0      -905.711182  -1100.000000  -39626.50000    324.096100
   10964           0     -1267.995605  -1100.000000  -39626.50000    297.441895
   10965           0     -1630.279785  -1100.000000  -39626.50000    261.685669
   10966           0     -1992.564209  -1100.000000  -39626.50000    218.018646
   10967           0     -2354.849121  -1100.000000  -39626.50000    170.289978
   10968           0     -2717.133301  -1099.999878  -39626.50390    131.522537
   10969           0      2717.133057  -1100.000122  -39250.59765     87.364227
   10970           0      2354.848633  -1100.000000  -39250.59375    132.565338
   10971           0      1992.564331  -1100.000000  -39250.59375    186.750290
   10972           0      1630.279785  -1100.000000  -39250.59375    234.793594
   10973           0      1267.995483  -1100.000000  -39250.59375    273.903381
   10974           0       905.711060  -1100.000000  -39250.59375    303.592163
   10975           0       543.426575  -1100.000000  -39250.59375    323.911224
   10976           0       181.142136  -1100.000000  -39250.59375    335.022858
   10977           0      -181.142288  -1100.000000  -39250.59375    337.067596
   10978           0      -543.426758  -1100.000000  -39250.59375    330.128998
   10979           0      -905.711182  -1100.000000  -39250.59375    314.253967
   10980           0     -1267.995605  -1100.000000  -39250.59375    289.540100
   10981           0     -1630.279785  -1100.000000  -39250.59375    256.356110
   10982           0     -1992.564209  -1100.000000  -39250.59375    215.943390
   10983           0     -2354.849121  -1100.000000  -39250.59375    172.249802
   10984           0     -2717.133301  -1099.999878  -39250.59765    137.795837
   10985           0      2717.133057  -1100.000122  -38874.69921     97.053551
   10986           0      2354.848633  -1100.000000  -38874.70312    135.893448
   10987           0      1992.564331  -1100.000000  -38874.70312    184.838211
   10988           0      1630.279785  -1100.000000  -38874.70312    228.928848
   10989           0      1267.995483  -1100.000000  -38874.70312    264.965149
   10990           0       905.711060  -1100.000000  -38874.70312    292.343231
   10991           0       543.426575  -1100.000000  -38874.70312    311.107849
   10992           0       181.142136  -1100.000000  -38874.70312    321.442444
   10993           0      -181.142288  -1100.000000  -38874.70312    323.504639
   10994           0      -543.426758  -1100.000000  -38874.70312    317.379333
   10995           0      -905.711182  -1100.000000  -38874.70312    303.099030
   10996           0     -1267.995605  -1100.000000  -38874.70312    280.738007
   10997           0     -1630.279785  -1100.000000  -38874.70312    250.654404
   10998           0     -1992.564209  -1100.000000  -38874.70312    214.112579
   10999           0     -2354.849121  -1100.000000  -38874.70312    175.074005
   11000           0     -2717.133301  -1099.999878  -38874.70312    145.236130
   11001           0      2717.133057  -1100.000122  -38498.80078    108.087791
   11002           0      2354.848633  -1100.000000  -38498.80468    140.504135
   11003           0      1992.564331  -1100.000000  -38498.80468    183.405426
   11004           0      1630.279785  -1100.000000  -38498.80468    222.748856
   11005           0      1267.995483  -1100.000000  -38498.80468    255.053482
   11006           0       905.711060  -1100.000000  -38498.80468    279.618073
   11007           0       543.426575  -1100.000000  -38498.80468    296.490997
   11008           0       181.142136  -1100.000000  -38498.80859    305.885651
   11009           0      -181.142288  -1100.000000  -38498.80859    307.980438
   11010           0      -543.426758  -1100.000000  -38498.80859    302.859283
   11011           0      -905.711182  -1100.000000  -38498.80859    290.529541
   11012           0     -1267.995605  -1100.000000  -38498.80859    271.026764
   11013           0     -1630.279785  -1100.000000  -38498.80859    244.669556
   11014           0     -1992.564209  -1100.000000  -38498.80859    212.697647
   11015           0     -2354.849121  -1100.000000  -38498.80859    178.936325
   11016           0     -2717.133301  -1099.999878  -38498.80468    153.929840
   11017           0      2717.133057  -1100.000122  -38122.89453    120.341499
   11018           0      2354.848633  -1100.000000  -38122.89453    146.469345
   11019           0      1992.564331  -1100.000000  -38122.89843    182.599777
   11020           0      1630.279785  -1100.000000  -38122.89843    216.325897
   11021           0      1267.995483  -1100.000000  -38122.89843    244.129517
   11022           0       905.711060  -1100.000000  -38122.89843    265.276642
   11023           0       543.426575  -1100.000000  -38122.89843    279.850525
   11024           0       181.142136  -1100.000000  -38122.89843    288.112000
   11025           0      -181.142288  -1100.000000  -38122.89843    290.268219
   11026           0      -543.426758  -1100.000000  -38122.89843    286.396698
   11027           0      -905.711182  -1100.000000  -38122.89843    276.462738
   11028           0     -1267.995605  -1100.000000  -38122.90234    260.429871
   11029           0     -1630.279785  -1100.000000  -38122.90234    238.529861
   11030           0     -1992.564209  -1100.000000  -38122.90234    211.880508
   11031           0     -2354.849121  -1100.000000  -38122.90234    183.978699
   11032           0     -2717.133301  -1099.999878  -38122.89843    163.872177
   11033           0      2717.133057  -1100.000122  -37746.98828    133.584503
   11034           0      2354.848633  -1100.000000  -37746.98828    153.729050
   11035           0      1992.564331  -1100.000000  -37746.98828    182.518402
   11036           0      1630.279785  -1100.000000  -37746.98828    209.731766
   11037           0      1267.995483  -1100.000000  -37746.98828    232.161423
   11038           0       905.711060  -1100.000000  -37746.98828    249.177383
   11039           0       543.426575  -1100.000000  -37746.98828    260.962799
   11040           0       181.142136  -1100.000000  -37746.98828    267.865417
   11041           0      -181.142288  -1100.000000  -37746.98828    270.134521
   11042           0      -543.426758  -1100.000000  -37746.98828    267.832428
   11043           0      -905.711182  -1100.000000  -37746.98828    260.849121
   11044           0     -1267.995605  -1100.000000  -37746.99218    249.018692
   11045           0     -1630.279785  -1100.000000  -37746.99218    232.394455
   11046           0     -1992.564209  -1100.000000  -37746.99218    211.835358
   11047           0     -2354.849121  -1100.000000  -37746.99218    190.247910
   11048           0     -2717.133301  -1099.999878  -37746.98828    174.985657
   11049           0      2717.133057  -1100.000122  -37371.08593    147.442795
   11050           0      2354.848633  -1100.000000  -37371.08203    162.038757
   11051           0      1992.564331  -1100.000000  -37371.08203    183.148056
   11052           0      1630.279785  -1100.000000  -37371.08203    203.005325
   11053           0      1267.995483  -1100.000000  -37371.08203    219.120773
   11054           0       905.711060  -1100.000000  -37371.08203    231.180359
   11055           0       543.426575  -1100.000000  -37371.08203    239.600067
   11056           0       181.142136  -1100.000000  -37371.08203    244.885208
   11057           0      -181.142288  -1100.000000  -37371.08203    247.357620
   11058           0      -543.426758  -1100.000000  -37371.08203    247.046814
   11059           0      -905.711182  -1100.000000  -37371.08203    243.701843
   11060           0     -1267.995605  -1100.000000  -37371.08203    236.926071
   11061           0     -1630.279785  -1100.000000  -37371.08203    226.450073
   11062           0     -1992.564209  -1100.000000  -37371.08203    212.670776
   11063           0     -2354.849121  -1100.000000  -37371.08203    197.683838
   11064           0     -2717.133301  -1099.999878  -37371.08203    186.988434
   11065           0      2717.133057  -1100.000122  -36995.18359    161.352737
   11066           0      2354.848633  -1100.000000  -36995.17968    170.914063
   11067           0      1992.564331  -1100.000000  -36995.17968    184.278748
   11068           0      1630.279785  -1100.000000  -36995.17968    196.109024
   11069           0      1267.995483  -1100.000000  -36995.17968    204.970169
   11070           0       905.711060  -1100.000000  -36995.17968    211.170242
   11071           0       543.426575  -1100.000000  -36995.17968    215.557449
   11072           0       181.142136  -1100.000000  -36995.17968    218.945404
   11073           0      -181.142288  -1100.000000  -36995.17968    221.781479
   11074           0      -543.426758  -1100.000000  -36995.17968    224.021973
   11075           0      -905.711182  -1100.000000  -36995.17968    225.159500
   11076           0     -1267.995605  -1100.000000  -36995.17968    224.377060
   11077           0     -1630.279785  -1100.000000  -36995.17968    220.882416
   11078           0     -1992.564209  -1100.000000  -36995.17968    214.398087
   11079           0     -2354.849121  -1100.000000  -36995.17968    205.995972
   11080           0     -2717.133301  -1099.999878  -36995.18359    199.518799
   11081           0      2717.133057  -1100.000122  -36619.27734    174.479950
   11082           0      2354.848633  -1100.000000  -36619.28125    179.566345
   11083           0      1992.564331  -1100.000000  -36619.28125    185.427032
   11084           0      1630.279785  -1100.000000  -36619.28125    188.850250
   11085           0      1267.995483  -1100.000000  -36619.28125    189.682465
   11086           0       905.711060  -1100.000000  -36619.28125    189.111847
   11087           0       543.426575  -1100.000000  -36619.28125    188.757156
   11088           0       181.142136  -1100.000000  -36619.28125    189.978317
   11089           0      -181.142288  -1100.000000  -36619.28125    193.466125
   11090           0      -543.426758  -1100.000000  -36619.28125    199.018280
   11091           0      -905.711182  -1100.000000  -36619.28125    205.613815
   11092           0     -1267.995605  -1100.000000  -36619.28125    211.758804
   11093           0     -1630.279785  -1100.000000  -36619.28125    215.868698
   11094           0     -1992.564209  -1100.000000  -36619.28125    216.840851
   11095           0     -2354.849121  -1100.000000  -36619.28125    214.742157
   11096           0     -2717.133301  -1099.999878  -36619.27734    211.784561
   11097           0      2717.133057  -1100.000122  -36243.37500    185.649734
   11098           0      2354.848633  -1100.000000  -36243.37500    186.829605
   11099           0      1992.564331  -1100.000000  -36243.37500    185.712433
   11100           0      1630.279785  -1100.000000  -36243.37500    180.859665
   11101           0      1267.995483  -1100.000000  -36243.37500    173.283127
   11102           0       905.711060  -1100.000000  -36243.37500    165.293182
   11103           0       543.426575  -1100.000000  -36243.37500    159.571243
   11104           0       181.142136  -1100.000000  -36243.37500    158.491364
   11105           0      -181.142288  -1100.000000  -36243.37500    163.170120
   11106           0      -543.426758  -1100.000000  -36243.37500    173.012238
   11107           0      -905.711182  -1100.000000  -36243.37500    186.064438
   11108           0     -1267.995605  -1100.000000  -36243.37500    199.740936
   11109           0     -1630.279785  -1100.000000  -36243.37500    211.594223
   11110           0     -1992.564209  -1100.000000  -36243.37500    219.659592
   11111           0     -2354.849121  -1100.000000  -36243.37500    223.069458
   11112           0     -2717.133301  -1099.999878  -36243.37500    223.040710
   11113           0      2717.133057  -1100.000122  -35867.46875    193.175095
   11114           0      2354.848633  -1100.000000  -35867.46093    191.047195
   11115           0      1992.564331  -1100.000000  -35867.46093    183.869644
   11116           0      1630.279785  -1100.000000  -35867.46093    171.552139
   11117           0      1267.995483  -1100.000000  -35867.46093    156.221451
   11118           0       905.711060  -1100.000000  -35867.46093    141.021805
   11119           0       543.426575  -1100.000000  -35867.46093    130.001480
   11120           0       181.142136  -1100.000000  -35867.46093    127.013702
   11121           0      -181.142288  -1100.000000  -35867.46093    133.852814
   11122           0      -543.426758  -1100.000000  -35867.46093    148.978256
   11123           0      -905.711182  -1100.000000  -35867.46093    168.815659
   11124           0     -1267.995605  -1100.000000  -35867.46093    189.692474
   11125           0     -1630.279785  -1100.000000  -35867.46093    208.348785
   11126           0     -1992.564209  -1100.000000  -35867.46093    222.342285
   11127           0     -2354.849121  -1100.000000  -35867.46093    230.121033
   11128           0     -2717.133301  -1099.999878  -35867.46875    231.591797
   11129           0      2717.133057  -1100.000122  -35491.56250    194.770279
   11130           0      2354.848633  -1100.000000  -35491.55859    189.983597
   11131           0      1992.564331  -1100.000000  -35491.55468    178.117615
   11132           0      1630.279785  -1100.000000  -35491.55468    160.648453
   11133           0      1267.995483  -1100.000000  -35491.55468    140.292221
   11134           0       905.711060  -1100.000000  -35491.55468    120.981598
   11135           0       543.426575  -1100.000000  -35491.55468    107.480354
   11136           0       181.142136  -1100.000000  -35491.55468    104.883080
   11137           0      -181.142288  -1100.000000  -35491.55468    114.973503
   11138           0      -543.426758  -1100.000000  -35491.55468    134.620621
   11139           0      -905.711182  -1100.000000  -35491.55468    159.049683
   11140           0     -1267.995605  -1100.000000  -35491.55468    184.211517
   11141           0     -1630.279785  -1100.000000  -35491.55468    207.018494
   11142           0     -1992.564209  -1100.000000  -35491.55468    224.497192
   11143           0     -2354.849121  -1100.000000  -35491.55078    234.452454
   11144           0     -2717.133301  -1099.999878  -35491.56250    236.463272
   11145           0      2717.133057  -1100.000122  -35115.65625    187.088013
   11146           0      2354.848633  -1100.000000  -35115.64843    180.588943
   11147           0      1992.564331  -1100.000000  -35115.64843    166.958466
   11148           0      1630.279785  -1100.000000  -35115.64843    149.258926
   11149           0      1267.995483  -1100.000000  -35115.64843    131.707947
   11150           0       905.711060  -1100.000000  -35115.64843    117.726524
   11151           0       543.426575  -1100.000000  -35115.64843    110.993523
   11152           0       181.142136  -1100.000000  -35115.64843    113.841370
   11153           0      -181.142288  -1100.000000  -35115.64843    125.776733
   11154           0      -543.426758  -1100.000000  -35115.64843    144.131546
   11155           0      -905.711182  -1100.000000  -35115.64843    165.899521
   11156           0     -1267.995605  -1100.000000  -35115.64843    188.538925
   11157           0     -1630.279785  -1100.000000  -35115.64843    209.632401
   11158           0     -1992.564209  -1100.000000  -35115.64843    226.487045
   11159           0     -2354.849121  -1100.000000  -35115.64843    235.654465
   11160           0     -2717.133301  -1099.999878  -35115.65625    234.457184
   11161           0      2717.133057  -1100.000122  -34739.75781    165.724686
   11162           0      2354.848633  -1100.000000  -34739.75390    159.469833
   11163           0      1992.564331  -1100.000000  -34739.75390    150.347519
   11164           0      1630.279785  -1100.000000  -34739.75390    144.939056
   11165           0      1267.995483  -1100.000000  -34739.75390    144.390900
   11166           0       905.711060  -1100.000000  -34739.75390    148.617233
   11167           0       543.426575  -1100.000000  -34739.75390    156.454254
   11168           0       181.142136  -1100.000000  -34739.75390    166.446487
   11169           0      -181.142288  -1100.000000  -34739.75390    177.424759
   11170           0      -543.426758  -1100.000000  -34739.75390    188.685104
   11171           0      -905.711182  -1100.000000  -34739.75390    199.908157
   11172           0     -1267.995605  -1100.000000  -34739.75390    210.949982
   11173           0     -1630.279785  -1100.000000  -34739.75390    221.443665
   11174           0     -1992.564209  -1100.000000  -34739.75390    230.391174
   11175           0     -2354.849121  -1100.000000  -34739.75390    233.402039
   11176           0     -2717.133301  -1099.999878  -34739.75781    226.489655
   11177           0      2717.133057  -1100.000122  -34363.85937    122.911530
   11178           0      2354.848633  -1100.000000  -34363.86328    124.226677
   11179           0      1992.564331  -1100.000000  -34363.86328    141.544250
   11180           0      1630.279785  -1100.000000  -34363.86328    166.930008
   11181           0      1267.995483  -1100.000000  -34363.86328    194.023483
   11182           0       905.711060  -1100.000000  -34363.86328    219.039963
   11183           0       543.426575  -1100.000000  -34363.86328    239.852386
   11184           0       181.142136  -1100.000000  -34363.86328    255.343903
   11185           0      -181.142288  -1100.000000  -34363.86328    265.049896
   11186           0      -543.426758  -1100.000000  -34363.86328    268.986267
   11187           0      -905.711182  -1100.000000  -34363.86328    267.601959
   11188           0     -1267.995605  -1100.000000  -34363.86328    261.779083
   11189           0     -1630.279785  -1100.000000  -34363.86328    252.945175
   11190           0     -1992.564209  -1100.000000  -34363.86328    242.584091
   11191           0     -2354.849121  -1100.000000  -34363.86328    233.281891
   11192           0     -2717.133301  -1099.999878  -34363.85937    209.979874
   11193           0      2717.133057  -1100.000122  -33987.95312     48.844200
   11194           0      2354.848633  -1100.000000  -33987.95312    111.519798
   11195           0      1992.564331  -1100.000000  -33987.95312    177.196594
   11196           0      1630.279785  -1100.000000  -33987.95312    236.503143
   11197           0      1267.995483  -1100.000000  -33987.95312    286.937927
   11198           0       905.711060  -1100.000000  -33987.95312    327.574097
   11199           0       543.426575  -1100.000000  -33987.95312    357.835785
   11200           0       181.142136  -1100.000000  -33987.95312    377.474823
   11201           0      -181.142288  -1100.000000  -33987.95312    386.402771
   11202           0      -543.426758  -1100.000000  -33987.95312    384.695709
   11203           0      -905.711182  -1100.000000  -33987.95312    372.618317
   11204           0     -1267.995605  -1100.000000  -33987.95312    350.664886
   11205           0     -1630.279785  -1100.000000  -33987.95312    319.796661
   11206           0     -1992.564209  -1100.000000  -33987.95312    281.865326
   11207           0     -2354.849121  -1100.000000  -33987.95312    240.516632
   11208           0     -2717.133301  -1099.999878  -33987.95312    210.463760
   11209           0      2717.133057  -1100.000122  -33612.22265     50.572292
   11210           0      2354.848633  -1100.000000  -33612.22265    112.376549
   11211           0      1992.564331  -1100.000000  -33612.22265    177.770706
   11212           0      1630.279785  -1100.000000  -33612.22265    236.923691
   11213           0      1267.995483  -1100.000000  -33612.22265    287.256683
   11214           0       905.711060  -1100.000000  -33612.22265    327.812286
   11215           0       543.426575  -1100.000000  -33612.22265    358.003693
   11216           0       181.142136  -1100.000000  -33612.22265    377.576294
   11217           0      -181.142288  -1100.000000  -33612.22265    386.437683
   11218           0      -543.426758  -1100.000000  -33612.22265    384.660614
   11219           0      -905.711182  -1100.000000  -33612.22265    372.506317
   11220           0     -1267.995605  -1100.000000  -33612.22265    350.464844
   11221           0     -1630.279907  -1100.000000  -33612.22265    319.492035
   11222           0     -1992.564331  -1100.000000  -33612.22265    281.431396
   11223           0     -2354.849121  -1100.000000  -33612.22265    239.919952
   11224           0     -2717.133301  -1099.999878  -33612.22265    209.742096
   11225           0      2717.133057  -1100.000122  -33236.66796    124.977234
   11226           0      2354.848633  -1100.000000  -33236.66796    126.323387
   11227           0      1992.564331  -1100.000000  -33236.66796    143.343277
   11228           0      1630.279785  -1100.000000  -33236.66796    168.345749
   11229           0      1267.995483  -1100.000000  -33236.66796    195.077087
   11230           0       905.711060  -1100.000000  -33236.66796    219.779236
   11231           0       543.426575  -1100.000000  -33236.66796    240.313309
   11232           0       181.142136  -1100.000000  -33236.66796    255.551041
   11233           0      -181.142288  -1100.000000  -33236.66796    265.016937
   11234           0      -543.426758  -1100.000000  -33236.66796    268.720886
   11235           0      -905.711182  -1100.000000  -33236.66796    267.107697
   11236           0     -1267.995605  -1100.000000  -33236.66796    261.062958
   11237           0     -1630.280029  -1100.000000  -33236.66796    252.022644
   11238           0     -1992.564453  -1100.000000  -33236.66796    241.499832
   11239           0     -2354.848633  -1100.000000  -33236.66796    232.128860
   11240           0     -2717.133301  -1099.999878  -33236.66796    208.929321
   11241           0      2717.133057  -1100.000122  -32861.10937    167.826187
   11242           0      2354.848633  -1100.000000  -32861.10937    161.783279
   11243           0      1992.564331  -1100.000000  -32861.10937    152.735184
   11244           0      1630.279785  -1100.000000  -32861.10937    147.202438
   11245           0      1267.995483  -1100.000000  -32861.10937    146.322357
   11246           0       905.711060  -1100.000000  -32861.10937    150.056412
   11247           0       543.426575  -1100.000000  -32861.10937    157.329620
   11248           0       181.142136  -1100.000000  -32861.10937    166.757248
   11249           0      -181.142288  -1100.000000  -32861.10937    177.215317
   11250           0      -543.426758  -1100.000000  -32861.10937    188.022614
   11251           0      -905.711182  -1100.000000  -32861.10937    198.877121
   11252           0     -1267.995605  -1100.000000  -32861.10937    209.647705
   11253           0     -1630.280029  -1100.000000  -32861.10937    219.984680
   11254           0     -1992.564453  -1100.000000  -32861.10937    228.899323
   11255           0     -2354.848633  -1100.000000  -32861.10937    232.009781
   11256           0     -2717.133301  -1099.999878  -32861.11328    225.289764
   11257           0      2717.133057  -1100.000122  -32485.55664    189.249054
   11258           0      2354.848633  -1100.000000  -32485.55664    182.975067
   11259           0      1992.564331  -1100.000000  -32485.55664    169.497269
   11260           0      1630.279785  -1100.000000  -32485.55664    151.846130
   11261           0      1267.995483  -1100.000000  -32485.55664    134.170395
   11262           0       905.711060  -1100.000000  -32485.55664    119.793816
   11263           0       543.426575  -1100.000000  -32485.55664    112.330017
   11264           0       181.142136  -1100.000000  -32485.55664    114.232262
   11265           0      -181.142288  -1100.000000  -32485.55664    125.280266
   11266           0      -543.426758  -1100.000000  -32485.55664    142.985489
   11267           0      -905.711182  -1100.000000  -32485.55664    164.355392
   11268           0     -1267.995605  -1100.000000  -32485.55664    186.803726
   11269           0     -1630.280029  -1100.000000  -32485.55664    207.865601
   11270           0     -1992.564453  -1100.000000  -32485.55664    224.818161
   11271           0     -2354.848633  -1100.000000  -32485.55664    234.183044
   11272           0     -2717.133301  -1099.999878  -32485.55664    233.248505
   11273           0      2717.133057  -1100.000122  -32110.00000    197.004318
   11274           0      2354.848633  -1100.000000  -32110.00000    192.425674
   11275           0      1992.564331  -1100.000000  -32110.00000    180.685776
   11276           0      1630.279785  -1100.000000  -32110.00000    163.247086
   11277           0      1267.995483  -1100.000000  -32110.00000    142.777206
   11278           0       905.711060  -1100.000000  -32110.00000    123.111771
   11279           0       543.426575  -1100.000000  -32110.00000    108.889755
   11280           0       181.142136  -1100.000000  -32110.00000    105.231262
   11281           0      -181.142288  -1100.000000  -32110.00000    114.278137
   11282           0      -543.426758  -1100.000000  -32110.00000    133.215347
   11283           0      -905.711182  -1100.000000  -32110.00000    157.277863
   11284           0     -1267.995605  -1100.000000  -32110.00000    182.315155
   11285           0     -1630.280029  -1100.000000  -32110.00000    205.162933
   11286           0     -1992.564453  -1100.000000  -32110.00000    222.800278
   11287           0     -2354.848633  -1100.000000  -32110.00000    232.999847
   11288           0     -2717.133301  -1099.999878  -32110.00000    235.326111
   11289           0      2717.133057  -1100.000122  -31734.44531    195.490372
   11290           0      2354.848633  -1100.000000  -31734.44531    193.535324
   11291           0      1992.564331  -1100.000000  -31734.44531    186.419144
   11292           0      1630.279785  -1100.000000  -31734.44531    174.044418
   11293           0      1267.995483  -1100.000000  -31734.44531    158.501404
   11294           0       905.711060  -1100.000000  -31734.44531    142.872482
   11295           0       543.426575  -1100.000000  -31734.44531    131.152847
   11296           0       181.142136  -1100.000000  -31734.44531    127.251656
   11297           0      -181.142288  -1100.000000  -31734.44531    133.189514
   11298           0      -543.426758  -1100.000000  -31734.44531    147.651230
   11299           0      -905.711182  -1100.000000  -31734.44531    167.116074
   11300           0     -1267.995605  -1100.000000  -31734.44531    187.858444
   11301           0     -1630.280029  -1100.000000  -31734.44531    206.553650
   11302           0     -1992.564453  -1100.000000  -31734.44531    220.712158
   11303           0     -2354.848633  -1100.000000  -31734.44531    228.754501
   11304           0     -2717.133301  -1099.999878  -31734.44531    230.569504
   11305           0      2717.133057  -1100.000122  -31358.88867    188.050568
   11306           0      2354.848633  -1100.000000  -31358.88867    189.351715
   11307           0      1992.564331  -1100.000000  -31358.88867    188.208298
   11308           0      1630.279785  -1100.000000  -31358.88867    183.194199
   11309           0      1267.995483  -1100.000000  -31358.88867    175.307251
   11310           0       905.711060  -1100.000000  -31358.88867    166.838715
   11311           0       543.426575  -1100.000000  -31358.88867    160.474747
   11312           0       181.142136  -1100.000000  -31358.88867    158.653656
   11313           0      -181.142288  -1100.000000  -31358.88867    162.616043
   11314           0      -543.426758  -1100.000000  -31358.88867    171.888611
   11315           0      -905.711182  -1100.000000  -31358.88867    184.576492
   11316           0     -1267.995605  -1100.000000  -31358.88867    198.090134
   11317           0     -1630.280029  -1100.000000  -31358.88867    209.950867
   11318           0     -1992.564453  -1100.000000  -31358.88867    218.163025
   11319           0     -2354.848633  -1100.000000  -31358.88867    221.835297
   11320           0     -2717.133301  -1099.999878  -31358.88867    222.170380
   11321           0      2717.133057  -1100.000122  -30983.33398    176.968124
   11322           0      2354.848633  -1100.000000  -30983.33398    182.104950
   11323           0      1992.564331  -1100.000000  -30983.33398    187.835770
   11324           0      1630.279785  -1100.000000  -30983.33398    190.998459
   11325           0      1267.995483  -1100.000000  -30983.33398    191.454132
   11326           0       905.711060  -1100.000000  -30983.33398    190.399857
   11327           0       543.426575  -1100.000000  -30983.33398    189.478729
   11328           0       181.142136  -1100.000000  -30983.33398    190.099091
   11329           0      -181.142288  -1100.000000  -30983.33398    193.019043
   11330           0      -543.426758  -1100.000000  -30983.33398    198.101410
   11331           0      -905.711182  -1100.000000  -30983.33398    204.368332
   11332           0     -1267.995605  -1100.000000  -30983.33398    210.341034
   11333           0     -1630.280029  -1100.000000  -30983.33398    214.431351
   11334           0     -1992.564453  -1100.000000  -30983.33398    215.525009
   11335           0     -2354.848633  -1100.000000  -30983.33398    213.679459
   11336           0     -2717.133301  -1099.999878  -30983.33398    211.094788
   11337           0      2717.133057  -1100.000122  -30607.77734    163.931198
   11338           0      2354.848633  -1100.000000  -30607.77734    173.446396
   11339           0      1992.564331  -1100.000000  -30607.77734    186.567688
   11340           0      1630.279785  -1100.000000  -30607.77734    198.055603
   11341           0      1267.995483  -1100.000000  -30607.77734    206.508011
   11342           0       905.711060  -1100.000000  -30607.77734    212.248947
   11343           0       543.426575  -1100.000000  -30607.77734    216.146851
   11344           0       181.142136  -1100.000000  -30607.77734    219.045471
   11345           0      -181.142288  -1100.000000  -30607.77734    221.428604
   11346           0      -543.426758  -1100.000000  -30607.77734    223.288651
   11347           0      -905.711182  -1100.000000  -30607.77734    224.146881
   11348           0     -1267.995605  -1100.000000  -30607.77734    223.204636
   11349           0     -1630.280029  -1100.000000  -30607.77734    219.678680
   11350           0     -1992.564453  -1100.000000  -30607.77734    213.297195
   11351           0     -2354.848633  -1100.000000  -30607.77734    205.137222
   11352           0     -2717.133301  -1099.999878  -30607.77734    199.039444
   11353           0      2717.133057  -1100.000122  -30232.22265    150.112137
   11354           0      2354.848633  -1100.000000  -30232.22265    164.539093
   11355           0      1992.564331  -1100.000000  -30232.22265    185.289124
   11356           0      1630.279785  -1100.000000  -30232.22265    204.745285
   11357           0      1267.995483  -1100.000000  -30232.22265    220.447571
   11358           0       905.711060  -1100.000000  -30232.22265    232.087875
   11359           0       543.426575  -1100.000000  -30232.22265    240.090744
   11360           0       181.142136  -1100.000000  -30232.22265    244.976639
   11361           0      -181.142288  -1100.000000  -30232.22265    247.087265
   11362           0      -543.426758  -1100.000000  -30232.22265    246.472824
   11363           0      -905.711182  -1100.000000  -30232.22265    242.901535
   11364           0     -1267.995605  -1100.000000  -30232.22265    235.992798
   11365           0     -1630.280029  -1100.000000  -30232.22265    225.490982
   11366           0     -1992.564453  -1100.000000  -30232.22265    211.807953
   11367           0     -2354.848633  -1100.000000  -30232.22265    197.058014
   11368           0     -2717.133301  -1099.999878  -30232.22265    186.747940
   11369           0      2717.133057  -1100.000122  -29856.66796    136.346741
   11370           0      2354.848633  -1100.000000  -29856.66796    156.167496
   11371           0      1992.564331  -1100.000000  -29856.66796    184.490341
   11372           0      1630.279785  -1100.000000  -29856.66796    211.269958
   11373           0      1267.995483  -1100.000000  -29856.66796    233.302856
   11374           0       905.711060  -1100.000000  -29856.66796    249.946747
   11375           0       543.426575  -1100.000000  -29856.66796    261.381439
   11376           0       181.142136  -1100.000000  -29856.66796    267.959839
   11377           0      -181.142288  -1100.000000  -29856.66796    269.941406
   11378           0      -543.426758  -1100.000000  -29856.66796    267.401123
   11379           0      -905.711182  -1100.000000  -29856.66796    260.242218
   11380           0     -1267.995605  -1100.000000  -29856.66796    248.312454
   11381           0     -1630.280029  -1100.000000  -29856.66796    231.679779
   11382           0     -1992.564453  -1100.000000  -29856.66796    211.223297
   11383           0     -2354.848633  -1100.000000  -29856.66796    189.877243
   11384           0     -2717.133301  -1099.999878  -29856.66796    175.009338
   11385           0      2717.133057  -1100.000122  -29481.10937    123.201248
   11386           0      2354.848633  -1100.000000  -29481.10937    148.818665
   11387           0      1992.564331  -1100.000000  -29481.10937    184.390396
   11388           0      1630.279785  -1100.000000  -29481.10937    217.672150
   11389           0      1267.995483  -1100.000000  -29481.10937    245.107239
   11390           0       905.711060  -1100.000000  -29481.10937    265.930481
   11391           0       543.426575  -1100.000000  -29481.10937    280.212372
   11392           0       181.142136  -1100.000000  -29481.10937    288.212555
   11393           0      -181.142288  -1100.000000  -29481.10937    290.143036
   11394           0      -543.426758  -1100.000000  -29481.10937    286.089752
   11395           0      -905.711182  -1100.000000  -29481.10937    276.027771
   11396           0     -1267.995605  -1100.000000  -29481.10937    259.932404
   11397           0     -1630.280029  -1100.000000  -29481.10937    238.050491
   11398           0     -1992.564453  -1100.000000  -29481.10937    211.522751
   11399           0     -2354.848633  -1100.000000  -29481.10937    183.880783
   11400           0     -2717.133301  -1099.999878  -29481.10937    164.189987
   11401           0      2717.133057  -1100.000122  -29105.55468    111.047287
   11402           0      2354.848633  -1100.000000  -29105.55468    142.738724
   11403           0      1992.564331  -1100.000000  -29105.55468    185.011642
   11404           0      1630.279785  -1100.000000  -29105.55468    223.918274
   11405           0      1267.995483  -1100.000000  -29105.55468    255.889359
   11406           0       905.711060  -1100.000000  -29105.55468    280.176666
   11407           0       543.426575  -1100.000000  -29105.55468    296.809753
   11408           0       181.142136  -1100.000000  -29105.55468    305.996826
   11409           0      -181.142288  -1100.000000  -29105.55468    307.918396
   11410           0      -543.426758  -1100.000000  -29105.55468    302.664063
   11411           0      -905.711182  -1100.000000  -29105.55468    290.249512
   11412           0     -1267.995605  -1100.000000  -29105.55468    270.720947
   11413           0     -1630.280029  -1100.000000  -29105.55468    244.412842
   11414           0     -1992.564453  -1100.000000  -29105.55468    212.590576
   11415           0     -2354.848633  -1100.000000  -29105.55468    179.120728
   11416           0     -2717.133301  -1099.999878  -29105.55468    154.563354
   11417           0      2717.133057  -1100.000122  -28729.99804    100.114647
   11418           0      2354.848633  -1100.000000  -28730.00000    137.992615
   11419           0      1992.564331  -1100.000000  -28730.00000    186.264542
   11420           0      1630.279785  -1100.000000  -28730.00000    229.938980
   11421           0      1267.995483  -1100.000000  -28730.00000    265.679474
   11422           0       905.711060  -1100.000000  -28730.00000    292.824127
   11423           0       543.426575  -1100.000000  -28730.00000    311.394928
   11424           0       181.142136  -1100.000000  -28730.00000    321.568390
   11425           0      -181.142288  -1100.000000  -28730.00000    323.502472
   11426           0      -543.426758  -1100.000000  -28730.00000    317.286407
   11427           0      -905.711182  -1100.000000  -28730.00000    302.959961
   11428           0     -1267.995605  -1100.000000  -28730.00000    280.608124
   11429           0     -1630.280029  -1100.000000  -28730.00000    250.605942
   11430           0     -1992.564453  -1100.000000  -28730.00000    214.246994
   11431           0     -2354.848633  -1100.000000  -28730.00000    175.542053
   11432           0     -2717.133301  -1099.999878  -28729.99804    146.203918
   11433           0      2717.133057  -1100.000122  -28354.44335     90.525200
   11434           0      2354.848633  -1100.000000  -28354.44335    134.516068
   11435           0      1992.564331  -1100.000000  -28354.44335    188.007156
   11436           0      1630.279785  -1100.000000  -28354.44335    235.662537
   11437           0      1267.995483  -1100.000000  -28354.44335    274.514191
   11438           0       905.711060  -1100.000000  -28354.44335    304.009552
   11439           0       543.426575  -1100.000000  -28354.44335    324.175568
   11440           0       181.142136  -1100.000000  -28354.44335    335.166473
   11441           0      -181.142288  -1100.000000  -28354.44335    337.122131
   11442           0      -543.426758  -1100.000000  -28354.44335    330.129822
   11443           0      -905.711182  -1100.000000  -28354.44335    314.243439
   11444           0     -1267.995605  -1100.000000  -28354.44335    289.571381
   11445           0     -1630.280029  -1100.000000  -28354.44335    256.500977
   11446           0     -1992.564453  -1100.000000  -28354.44335    216.306885
   11447           0     -2354.848633  -1100.000000  -28354.44335    172.996948
   11448           0     -2717.133301  -1099.999878  -28354.44335    139.109283
   11449           0      2717.133057  -1100.000122  -27978.88867     82.322235
   11450           0      2354.848633  -1100.000000  -27978.89062    132.162003
   11451           0      1992.564331  -1100.000000  -27978.89062    190.086365
   11452           0      1630.279785  -1100.000000  -27978.89062    241.030960
   11453           0      1267.995483  -1100.000000  -27978.89062    282.440063
   11454           0       905.711060  -1100.000000  -27978.89062    313.867157
   11455           0       543.426575  -1100.000000  -27978.89062    335.345886
   11456           0       181.142136  -1100.000000  -27978.89062    347.012604
   11457           0      -181.142288  -1100.000000  -27978.89062    348.992035
   11458           0      -543.426758  -1100.000000  -27978.89062    341.368042
   11459           0      -905.711182  -1100.000000  -27978.89062    324.203918
   11460           0     -1267.995605  -1100.000000  -27978.89062    297.621552
   11461           0     -1630.280029  -1100.000000  -27978.89062    262.009460
   11462           0     -1992.564453  -1100.000000  -27978.89062    218.597244
   11463           0     -2354.848633  -1100.000000  -27978.89062    171.306244
   11464           0     -2717.133301  -1099.999878  -27978.89062    133.186371
   11465           0      2717.133057  -1100.000122  -27603.33398     75.484138
   11466           0      2354.848633  -1100.000000  -27603.33398    130.743835
   11467           0      1992.564331  -1100.000000  -27603.33398    192.362152
   11468           0      1630.279785  -1100.000000  -27603.33398    246.005203
   11469           0      1267.995483  -1100.000000  -27603.33398    289.512024
   11470           0       905.711060  -1100.000000  -27603.33398    322.525665
   11471           0       543.426575  -1100.000000  -27603.33398    345.084442
   11472           0       181.142136  -1100.000000  -27603.33398    357.308807
   11473           0      -181.142288  -1100.000000  -27603.33398    359.309967
   11474           0      -543.426758  -1100.000000  -27603.33398    351.168152
   11475           0      -905.711182  -1100.000000  -27603.33398    332.952423
   11476           0     -1267.995605  -1100.000000  -27603.33398    304.793976
   11477           0     -1630.280029  -1100.000000  -27603.33398    267.076019
   11478           0     -1992.564453  -1100.000000  -27603.33398    220.976120
   11479           0     -2354.848633  -1100.000000  -27603.33398    170.281693
   11480           0     -2717.133301  -1099.999878  -27603.33398    128.307419
   11481           0      2717.133057  -1100.000122  -27227.77734     69.941193
   11482           0      2354.848633  -1100.000000  -27227.77734    130.066238
   11483           0      1992.564331  -1100.000000  -27227.77734    194.718643
   11484           0      1630.279785  -1100.000000  -27227.77734    250.566132
   11485           0      1267.995483  -1100.000000  -27227.77734    295.791656
   11486           0       905.711060  -1100.000000  -27227.77734    330.108704
   11487           0       543.426575  -1100.000000  -27227.77734    353.555908
   11488           0       181.142136  -1100.000000  -27227.77734    366.239441
   11489           0      -181.142288  -1100.000000  -27227.77734    368.258209
   11490           0      -543.426758  -1100.000000  -27227.77734    359.688477
   11491           0      -905.711182  -1100.000000  -27227.77734    340.603455
   11492           0     -1267.995605  -1100.000000  -27227.77734    311.140167
   11493           0     -1630.280029  -1100.000000  -27227.77734    271.675323
   11494           0     -1992.564453  -1100.000000  -27227.77734    223.333481
   11495           0     -2354.848633  -1100.000000  -27227.77734    169.751266
   11496           0     -2717.133301  -1099.999878  -27227.77734    124.318031
   11497           0      2717.133057  -1100.000122  -26852.22265     65.581047
   11498           0      2354.848633  -1100.000000  -26852.22265    129.948044
   11499           0      1992.564331  -1100.000000  -26852.22265    197.066818
   11500           0      1630.279785  -1100.000000  -26852.22265    254.710846
   11501           0      1267.995483  -1100.000000  -26852.22265    301.344238
   11502           0       905.711060  -1100.000000  -26852.22265    336.732086
   11503           0       543.426575  -1100.000000  -26852.22265    360.910156
   11504           0       181.142136  -1100.000000  -26852.22265    373.970703
   11505           0      -181.142288  -1100.000000  -26852.22265    376.001831
   11506           0      -543.426758  -1100.000000  -26852.22265    367.075836
   11507           0      -905.711182  -1100.000000  -26852.22265    347.268524
   11508           0     -1267.995605  -1100.000000  -26852.22265    316.721375
   11509           0     -1630.280029  -1100.000000  -26852.22265    275.803741
   11510           0     -1992.564453  -1100.000000  -26852.22265    225.591064
   11511           0     -2354.848633  -1100.000000  -26852.22265    169.566772
   11512           0     -2717.133301  -1099.999878  -26852.22265    121.065346
   11513           0      2717.133057  -1100.000122  -26476.66796     62.265236
   11514           0      2354.848633  -1100.000000  -26476.66796    130.232437
   11515           0      1992.564331  -1100.000000  -26476.66796    199.343353
   11516           0      1630.279785  -1100.000000  -26476.66796    258.450195
   11517           0      1267.995483  -1100.000000  -26476.66796    306.237335
   11518           0       905.711060  -1100.000000  -26476.66796    342.505127
   11519           0       543.426575  -1100.000000  -26476.66796    367.283997
   11520           0       181.142136  -1100.000000  -26476.66796    380.653320
   11521           0      -181.142288  -1100.000000  -26476.66796    382.691223
   11522           0      -543.426758  -1100.000000  -26476.66796    373.466248
   11523           0      -905.711182  -1100.000000  -26476.66796    353.055878
   11524           0     -1267.995605  -1100.000000  -26476.66796    321.604553
   11525           0     -1630.280029  -1100.000000  -26476.66796    279.474762
   11526           0     -1992.564453  -1100.000000  -26476.66796    227.697128
   11527           0     -2354.848633  -1100.000000  -26476.66796    169.609009
   11528           0     -2717.133301  -1099.999878  -26476.66796    118.402008
   11529           0      2717.133057  -1100.000122  -26101.11132     59.836990
   11530           0      2354.848633  -1100.000000  -26101.10937    130.791931
   11531           0      1992.564331  -1100.000000  -26101.10937    201.505203
   11532           0      1630.279785  -1100.000000  -26101.10937    261.802704
   11533           0      1267.995483  -1100.000000  -26101.10937    310.535217
   11534           0       905.711060  -1100.000000  -26101.10937    347.526001
   11535           0       543.426575  -1100.000000  -26101.10937    372.798309
   11536           0       181.142136  -1100.000000  -26101.10937    386.419464
   11537           0      -181.142288  -1100.000000  -26101.10937    388.458679
   11538           0      -543.426758  -1100.000000  -26101.10937    378.980865
   11539           0      -905.711182  -1100.000000  -26101.10937    358.064484
   11540           0     -1267.995605  -1100.000000  -26101.10937    325.855927
   11541           0     -1630.280029  -1100.000000  -26101.10937    282.711029
   11542           0     -1992.564453  -1100.000000  -26101.10937    229.620499
   11543           0     -2354.848633  -1100.000000  -26101.10937    169.785400
   11544           0     -2717.133301  -1099.999878  -26101.10937    116.202408
   11545           0      2717.133057  -1100.000122  -25725.55468     58.136959
   11546           0      2354.848633  -1100.000000  -25725.55664    131.526962
   11547           0      1992.564331  -1100.000000  -25725.55664    203.527100
   11548           0      1630.279785  -1100.000000  -25725.55664    264.794250
   11549           0      1267.995483  -1100.000000  -25725.55664    314.301727
   11550           0       905.711060  -1100.000000  -25725.55664    351.886475
   11551           0       543.426575  -1100.000000  -25725.55664    377.563354
   11552           0       181.142136  -1100.000000  -25725.55664    391.388947
   11553           0      -181.142288  -1100.000000  -25725.55664    393.424408
   11554           0      -543.426758  -1100.000000  -25725.55664    383.731018
   11555           0      -905.711182  -1100.000000  -25725.55664    362.387726
   11556           0     -1267.995605  -1100.000000  -25725.55664    329.542175
   11557           0     -1630.280029  -1100.000000  -25725.55664    285.543671
   11558           0     -1992.564453  -1100.000000  -25725.55664    231.346817
   11559           0     -2354.848633  -1100.000000  -25725.55664    170.027588
   11560           0     -2717.133301  -1099.999878  -25725.55468    114.356163
   11561           0      2717.133057  -1100.000122  -25349.99804     57.013508
   11562           0      2354.848633  -1100.000000  -25350.00000    132.362793
   11563           0      1992.564331  -1100.000000  -25350.00000    205.396362
   11564           0      1630.279785  -1100.000000  -25350.00000    267.453674
   11565           0      1267.995483  -1100.000000  -25350.00000    317.596527
   11566           0       905.711060  -1100.000000  -25350.00000    355.668762
   11567           0       543.426575  -1100.000000  -25350.00000    381.676941
   11568           0       181.142136  -1100.000000  -25350.00000    395.667480
   11569           0      -181.142288  -1100.000000  -25350.00000    397.694366
   11570           0      -543.426758  -1100.000000  -25350.00000    387.815674
   11571           0      -905.711182  -1100.000000  -25350.00000    366.110413
   11572           0     -1267.995605  -1100.000000  -25350.00000    332.726440
   11573           0     -1630.280029  -1100.000000  -25350.00000    288.006622
   11574           0     -1992.564453  -1100.000000  -25350.00000    232.873062
   11575           0     -2354.848633  -1100.000000  -25350.00000    170.286530
   11576           0     -2717.133301  -1099.999878  -25350.00000    112.775215
   11577           0      2717.133057  -1100.000122  -24974.44335     56.331837
   11578           0      2354.848633  -1100.000000  -24974.44335    133.245071
   11579           0      1992.564331  -1100.000000  -24974.44335    207.109207
   11580           0      1630.279785  -1100.000000  -24974.44335    269.810730
   11581           0      1267.995483  -1100.000000  -24974.44335    320.474304
   11582           0       905.711060  -1100.000000  -24974.44335    358.946381
   11583           0       543.426575  -1100.000000  -24974.44335    385.224915
   11584           0       181.142136  -1100.000000  -24974.44335    399.347443
   11585           0      -181.142288  -1100.000000  -24974.44335    401.361633
   11586           0      -543.426758  -1100.000000  -24974.44335    391.322388
   11587           0      -905.711182  -1100.000000  -24974.44335    369.308380
   11588           0     -1267.995605  -1100.000000  -24974.44335    335.467133
   11589           0     -1630.280029  -1100.000000  -24974.44335    290.134949
   11590           0     -1992.564453  -1100.000000  -24974.44335    234.203918
   11591           0     -2354.848633  -1100.000000  -24974.44335    170.528885
   11592           0     -2717.133301  -1099.999878  -24974.44335    111.389069
   11593           0      2717.133057  -1100.000122  -24598.89062     55.978237
   11594           0      2354.848633  -1100.000000  -24598.89257    134.135559
   11595           0      1992.564331  -1100.000000  -24598.89257    208.668289
   11596           0      1630.279785  -1100.000000  -24598.89257    271.895264
   11597           0      1267.995483  -1100.000000  -24598.89257    322.985474
   11598           0       905.711060  -1100.000000  -24598.89257    361.784760
   11599           0       543.426575  -1100.000000  -24598.89257    388.283203
   11600           0       181.142136  -1100.000000  -24598.89257    402.510284
   11601           0      -181.142288  -1100.000000  -24598.89257    404.508087
   11602           0      -543.426758  -1100.000000  -24598.89257    394.328613
   11603           0      -905.711182  -1100.000000  -24598.89257    372.049652
   11604           0     -1267.995605  -1100.000000  -24598.89257    337.817963
   11605           0     -1630.280029  -1100.000000  -24598.89257    291.963226
   11606           0     -1992.564453  -1100.000000  -24598.89257    235.349411
   11607           0     -2354.848633  -1100.000000  -24598.89257    170.733032
   11608           0     -2717.133301  -1099.999878  -24598.89062    110.142975
   11609           0      2717.133057  -1100.000122  -24223.33398     55.860401
   11610           0      2354.848633  -1100.000000  -24223.33593    135.008148
   11611           0      1992.564331  -1100.000000  -24223.33593    210.080063
   11612           0      1630.279785  -1100.000000  -24223.33593    273.735748
   11613           0      1267.995483  -1100.000000  -24223.33593    325.174988
   11614           0       905.711060  -1100.000000  -24223.33593    364.241516
   11615           0       543.426575  -1100.000000  -24223.33593    390.917847
   11616           0       181.142136  -1100.000000  -24223.33593    405.226685
   11617           0      -181.142288  -1100.000000  -24223.33593    407.204865
   11618           0      -543.426758  -1100.000000  -24223.33593    396.901825
   11619           0      -905.711182  -1100.000000  -24223.33593    374.394226
   11620           0     -1267.995605  -1100.000000  -24223.33593    339.827545
   11621           0     -1630.280029  -1100.000000  -24223.33593    293.524384
   11622           0     -1992.564453  -1100.000000  -24223.33593    236.322311
   11623           0     -2354.848633  -1100.000000  -24223.33593    170.885895
   11624           0     -2717.133301  -1099.999878  -24223.33398    108.995697
   11625           0      2717.133057  -1100.000122  -23847.77734     55.906620
   11626           0      2354.848633  -1100.000000  -23847.77734    135.845947
   11627           0      1992.564331  -1100.000000  -23847.77734    211.353516
   11628           0      1630.279785  -1100.000000  -23847.77734    275.358856
   11629           0      1267.995483  -1100.000000  -23847.77734    327.083191
   11630           0       905.711060  -1100.000000  -23847.77734    366.367218
   11631           0       543.426575  -1100.000000  -23847.77734    393.186737
   11632           0       181.142136  -1100.000000  -23847.77734    407.558136
   11633           0      -181.142288  -1100.000000  -23847.77734    409.514008
   11634           0      -543.426758  -1100.000000  -23847.77734    399.101135
   11635           0      -905.711182  -1100.000000  -23847.77734    376.395020
   11636           0     -1267.995605  -1100.000000  -23847.77734    341.539124
   11637           0     -1630.280029  -1100.000000  -23847.77734    294.849091
   11638           0     -1992.564453  -1100.000000  -23847.77734    237.136948
   11639           0     -2354.848633  -1100.000000  -23847.77734    170.980804
   11640           0     -2717.133301  -1099.999878  -23847.77734    107.915901
   11641           0      2717.133057  -1100.000122  -23472.22265     56.061844
   11642           0      2354.848633  -1100.000000  -23472.22265    136.638412
   11643           0      1992.564331  -1100.000000  -23472.22265    212.498734
   11644           0      1630.279785  -1100.000000  -23472.22265    276.789032
   11645           0      1267.995483  -1100.000000  -23472.22265    328.745636
   11646           0       905.711060  -1100.000000  -23472.22265    368.205902
   11647           0       543.426575  -1100.000000  -23472.22265    395.139618
   11648           0       181.142136  -1100.000000  -23472.22265    409.557739
   11649           0      -181.142288  -1100.000000  -23472.22265    411.489014
   11650           0      -543.426758  -1100.000000  -23472.22265    400.977783
   11651           0      -905.711182  -1100.000000  -23472.22265    378.098114
   11652           0     -1267.995605  -1100.000000  -23472.22265    342.991211
   11653           0     -1630.280029  -1100.000000  -23472.22265    295.965210
   11654           0     -1992.564453  -1100.000000  -23472.22265    237.807922
   11655           0     -2354.848633  -1100.000000  -23472.22265    171.015076
   11656           0     -2717.133301  -1099.999878  -23472.22265    106.881172
   11657           0      2717.133057  -1100.000122  -23096.66406     56.285828
   11658           0      2354.848633  -1100.000000  -23096.66210    137.379868
   11659           0      1992.564331  -1100.000000  -23096.66210    213.526291
   11660           0      1630.279785  -1100.000000  -23096.66210    278.048492
   11661           0      1267.995483  -1100.000000  -23096.66210    330.193817
   11662           0       905.711060  -1100.000000  -23096.66210    369.796143
   11663           0       543.426575  -1100.000000  -23096.66210    396.819885
   11664           0       181.142136  -1100.000000  -23096.66210    411.271606
   11665           0      -181.142288  -1100.000000  -23096.66210    413.176270
   11666           0      -543.426758  -1100.000000  -23096.66210    402.576233
   11667           0      -905.711182  -1100.000000  -23096.66210    379.543762
   11668           0     -1267.995605  -1100.000000  -23096.66210    344.217529
   11669           0     -1630.280029  -1100.000000  -23096.66210    296.898285
   11670           0     -1992.564453  -1100.000000  -23096.66210    238.349609
   11671           0     -2354.848633  -1100.000000  -23096.66210    170.989120
   11672           0     -2717.133301  -1099.999878  -23096.66406    105.874413
   11673           0      2717.133057  -1100.000122  -22721.10937     56.548534
   11674           0      2354.848633  -1100.000000  -22721.10546    138.067490
   11675           0      1992.564331  -1100.000000  -22721.10546    214.446182
   11676           0      1630.279785  -1100.000000  -22721.10546    279.156677
   11677           0      1267.995483  -1100.000000  -22721.10546    331.454529
   11678           0       905.711060  -1100.000000  -22721.10546    371.170441
   11679           0       543.426575  -1100.000000  -22721.10546    398.264313
   11680           0       181.142136  -1100.000000  -22721.10546    412.738464
   11681           0      -181.142288  -1100.000000  -22721.10546    414.615021
   11682           0      -543.426758  -1100.000000  -22721.10546    403.934143
   11683           0      -905.711182  -1100.000000  -22721.10546    380.766296
   11684           0     -1267.995605  -1100.000000  -22721.10546    345.247345
   11685           0     -1630.280029  -1100.000000  -22721.10546    297.670227
   11686           0     -1992.564453  -1100.000000  -22721.10546    238.775375
   11687           0     -2354.848633  -1100.000000  -22721.10546    170.905014
   11688           0     -2717.133301  -1099.999878  -22721.10742    104.884575
   11689           0      2717.133057  -1100.000122  -22345.55468     56.828873
   11690           0      2354.848633  -1100.000000  -22345.55078    138.700699
   11691           0      1992.564331  -1100.000000  -22345.55078    215.268250
   11692           0      1630.279785  -1100.000000  -22345.55078    280.131165
   11693           0      1267.995483  -1100.000000  -22345.55078    332.551605
   11694           0       905.711060  -1100.000000  -22345.55078    372.357483
   11695           0       543.426575  -1100.000000  -22345.55078    399.504730
   11696           0       181.142136  -1100.000000  -22345.55078    413.992218
   11697           0      -181.142288  -1100.000000  -22345.55078    415.839355
   11698           0      -543.426758  -1100.000000  -22345.55078    405.084351
   11699           0      -905.711182  -1100.000000  -22345.55078    381.795776
   11700           0     -1267.995605  -1100.000000  -22345.55078    346.106354
   11701           0     -1630.280029  -1100.000000  -22345.55078    298.301086
   11702           0     -1992.564453  -1100.000000  -22345.55078    239.097763
   11703           0     -2354.848633  -1100.000000  -22345.55078    170.765945
   11704           0     -2717.133301  -1099.999878  -22345.55273    103.902954
   11705           0      2717.133057  -1100.000122  -21970.00000     57.111568
   11706           0      2354.848633  -1100.000000  -21970.00000    139.280334
   11707           0      1992.564331  -1100.000000  -21970.00000    216.001495
   11708           0      1630.279785  -1100.000000  -21970.00000    280.987274
   11709           0      1267.995483  -1100.000000  -21970.00000    333.505524
   11710           0       905.711060  -1100.000000  -21970.00000    373.381683
   11711           0       543.426575  -1100.000000  -21970.00000    400.568420
   11712           0       181.142136  -1100.000000  -21970.00000    415.061676
   11713           0      -181.142288  -1100.000000  -21970.00000    416.878387
   11714           0      -543.426758  -1100.000000  -21970.00000    406.054871
   11715           0      -905.711182  -1100.000000  -21970.00000    382.657776
   11716           0     -1267.995605  -1100.000000  -21970.00000    346.816559
   11717           0     -1630.280029  -1100.000000  -21970.00000    298.808136
   11718           0     -1992.564453  -1100.000000  -21970.00000    239.328033
   11719           0     -2354.848633  -1100.000000  -21970.00000    170.575592
   11720           0     -2717.133301  -1099.999878  -21969.99804    102.923996
   11721           0      2717.133057  -1100.000122  -21594.44726     57.386265
   11722           0      2354.848633  -1100.000000  -21594.44921    139.807968
   11723           0      1992.564331  -1100.000000  -21594.44921    216.654053
   11724           0      1630.279785  -1100.000000  -21594.44921    281.738281
   11725           0      1267.995483  -1100.000000  -21594.44921    334.333649
   11726           0       905.711060  -1100.000000  -21594.44921    374.263733
   11727           0       543.426575  -1100.000000  -21594.44921    401.478516
   11728           0       181.142136  -1100.000000  -21594.44921    415.971222
   11729           0      -181.142288  -1100.000000  -21594.44921    417.756653
   11730           0      -543.426758  -1100.000000  -21594.44921    406.869415
   11731           0      -905.711182  -1100.000000  -21594.44921    383.374176
   11732           0     -1267.995605  -1100.000000  -21594.44921    347.396759
   11733           0     -1630.280029  -1100.000000  -21594.44921    299.206299
   11734           0     -1992.564453  -1100.000000  -21594.44921    239.476257
   11735           0     -2354.848633  -1100.000000  -21594.44921    170.337814
   11736           0     -2717.133301  -1099.999878  -21594.44531    101.943863
   11737           0      2717.133057  -1100.000122  -21218.88867     57.645741
   11738           0      2354.848633  -1100.000000  -21218.88867    140.285568
   11739           0      1992.564331  -1100.000000  -21218.88867    217.233200
   11740           0      1630.279785  -1100.000000  -21218.88867    282.395630
   11741           0      1267.995483  -1100.000000  -21218.88867    335.051056
   11742           0       905.711060  -1100.000000  -21218.88867    375.021515
   11743           0       543.426575  -1100.000000  -21218.88867    402.254669
   11744           0       181.142136  -1100.000000  -21218.88867    416.741516
   11745           0      -181.142288  -1100.000000  -21218.88867    418.495117
   11746           0      -543.426758  -1100.000000  -21218.88867    407.548218
   11747           0      -905.711182  -1100.000000  -21218.88867    383.963531
   11748           0     -1267.995605  -1100.000000  -21218.88867    347.863342
   11749           0     -1630.280029  -1100.000000  -21218.88867    299.508575
   11750           0     -1992.564453  -1100.000000  -21218.88867    239.551300
   11751           0     -2354.848633  -1100.000000  -21218.88867    170.056381
   11752           0     -2717.133301  -1099.999878  -21218.88867    100.960007
   11753           0      2717.133057  -1100.000122  -20843.33398     57.884998
   11754           0      2354.848633  -1100.000000  -20843.33398    140.715347
   11755           0      1992.564331  -1100.000000  -20843.33398    217.745316
   11756           0      1630.279785  -1100.000000  -20843.33398    282.969269
   11757           0      1267.995483  -1100.000000  -20843.33398    335.670380
   11758           0       905.711060  -1100.000000  -20843.33398    375.669830
   11759           0       543.426575  -1100.000000  -20843.33398    402.913391
   11760           0       181.142136  -1100.000000  -20843.33398    417.390106
   11761           0      -181.142288  -1100.000000  -20843.33398    419.111389
   11762           0      -543.426758  -1100.000000  -20843.33398    408.108337
   11763           0      -905.711182  -1100.000000  -20843.33398    384.441681
   11764           0     -1267.995605  -1100.000000  -20843.33398    348.229980
   11765           0     -1630.280029  -1100.000000  -20843.33398    299.726044
   11766           0     -1992.564453  -1100.000000  -20843.33398    239.560883
   11767           0     -2354.848633  -1100.000000  -20843.33398    169.734894
   11768           0     -2717.133301  -1099.999878  -20843.33398     99.970863
   11769           0      2717.133057  -1100.000122  -20467.77929     58.100964
   11770           0      2354.848633  -1100.000000  -20467.78125    141.099518
   11771           0      1992.564331  -1100.000000  -20467.78125    218.196060
   11772           0      1630.279785  -1100.000000  -20467.78125    283.467499
   11773           0      1267.995483  -1100.000000  -20467.78125    336.202515
   11774           0       905.711060  -1100.000000  -20467.78125    376.221497
   11775           0       543.426575  -1100.000000  -20467.78125    403.468750
   11776           0       181.142136  -1100.000000  -20467.78125    417.931793
   11777           0      -181.142288  -1100.000000  -20467.78125    419.620392
   11778           0      -543.426758  -1100.000000  -20467.78125    408.564240
   11779           0      -905.711182  -1100.000000  -20467.78125    384.821869
   11780           0     -1267.995605  -1100.000000  -20467.78125    348.508301
   11781           0     -1630.280029  -1100.000000  -20467.78125    299.868134
   11782           0     -1992.564453  -1100.000000  -20467.78125    239.511734
   11783           0     -2354.848633  -1100.000000  -20467.78125    169.376587
   11784           0     -2717.133301  -1099.999878  -20467.77929     98.975395
   11785           0      2717.133057  -1100.000122  -20092.22070     58.291569
   11786           0      2354.848633  -1100.000000  -20092.21875    141.440155
   11787           0      1992.564331  -1100.000000  -20092.21875    218.590240
   11788           0      1630.279785  -1100.000000  -20092.21875    283.897644
   11789           0      1267.995483  -1100.000000  -20092.21875    336.656525
   11790           0       905.711060  -1100.000000  -20092.21875    376.687134
   11791           0       543.426575  -1100.000000  -20092.21875    403.932526
   11792           0       181.142136  -1100.000000  -20092.21875    418.378845
   11793           0      -181.142288  -1100.000000  -20092.21875    420.034607
   11794           0      -543.426758  -1100.000000  -20092.21875    408.927979
   11795           0      -905.711182  -1100.000000  -20092.21875    385.115387
   11796           0     -1267.995605  -1100.000000  -20092.21875    348.708160
   11797           0     -1630.280029  -1100.000000  -20092.21875    299.942871
   11798           0     -1992.564453  -1100.000000  -20092.21875    239.409546
   11799           0     -2354.848633  -1100.000000  -20092.21875    168.984344
   11800           0     -2717.133301  -1099.999878  -20092.22070     97.973099
   11801           0      2717.133057  -1100.000122  -19716.66601     58.455666
   11802           0      2354.848633  -1100.000000  -19716.66601    141.739288
   11803           0      1992.564331  -1100.000000  -19716.66601    218.932098
   11804           0      1630.279785  -1100.000000  -19716.66601    284.265717
   11805           0      1267.995483  -1100.000000  -19716.66601    337.040100
   11806           0       905.711060  -1100.000000  -19716.66601    377.075653
   11807           0       543.426575  -1100.000000  -19716.66601    404.314514
   11808           0       181.142136  -1100.000000  -19716.66601    418.741699
   11809           0      -181.142288  -1100.000000  -19716.66601    420.364563
   11810           0      -543.426758  -1100.000000  -19716.66601    409.209656
   11811           0      -905.711182  -1100.000000  -19716.66601    385.331543
   11812           0     -1267.995605  -1100.000000  -19716.66601    348.837738
   11813           0     -1630.280029  -1100.000000  -19716.66601    299.956909
   11814           0     -1992.564453  -1100.000000  -19716.66601    239.259094
   11815           0     -2354.848633  -1100.000000  -19716.66601    168.560745
   11816           0     -2717.133301  -1099.999878  -19716.66601     96.963570
   11817           0      2717.133057  -1100.000122  -19341.11328     58.592525
   11818           0      2354.848633  -1100.000000  -19341.11328    141.998596
   11819           0      1992.564331  -1100.000000  -19341.11328    219.225021
   11820           0      1630.279785  -1100.000000  -19341.11328    284.576630
   11821           0      1267.995483  -1100.000000  -19341.11328    337.359467
   11822           0       905.711060  -1100.000000  -19341.11328    377.394409
   11823           0       543.426575  -1100.000000  -19341.11328    404.622803
   11824           0       181.142136  -1100.000000  -19341.11328    419.028809
   11825           0      -181.142288  -1100.000000  -19341.11328    420.618652
   11826           0      -543.426758  -1100.000000  -19341.11328    409.417542
   11827           0      -905.711182  -1100.000000  -19341.11328    385.478027
   11828           0     -1267.995605  -1100.000000  -19341.11328    348.903900
   11829           0     -1630.280029  -1100.000000  -19341.11328    299.915863
   11830           0     -1992.564453  -1100.000000  -19341.11328    239.064590
   11831           0     -2354.848633  -1100.000000  -19341.11328    168.108002
   11832           0     -2717.133301  -1099.999878  -19341.11328     95.947075
   11833           0      2717.133057  -1100.000122  -18965.55468     58.701969
   11834           0      2354.848633  -1100.000000  -18965.55468    142.219711
   11835           0      1992.564331  -1100.000000  -18965.55468    219.472092
   11836           0      1630.279785  -1100.000000  -18965.55468    284.834686
   11837           0      1267.995483  -1100.000000  -18965.55468    337.619995
   11838           0       905.711060  -1100.000000  -18965.55468    377.649475
   11839           0       543.426575  -1100.000000  -18965.55468    404.864136
   11840           0       181.142136  -1100.000000  -18965.55468    419.247223
   11841           0      -181.142288  -1100.000000  -18965.55468    420.804108
   11842           0      -543.426758  -1100.000000  -18965.55468    409.558624
   11843           0      -905.711182  -1100.000000  -18965.55468    385.561310
   11844           0     -1267.995605  -1100.000000  -18965.55468    348.912201
   11845           0     -1630.280029  -1100.000000  -18965.55468    299.824371
   11846           0     -1992.564453  -1100.000000  -18965.55468    238.829300
   11847           0     -2354.848633  -1100.000000  -18965.55468    167.628006
   11848           0     -2717.133301  -1099.999878  -18965.55468     94.923447
   11849           0      2717.133057  -1100.000122  -18590.00000     58.784004
   11850           0      2354.848633  -1100.000000  -18590.00000    142.403992
   11851           0      1992.564331  -1100.000000  -18590.00000    219.675720
   11852           0      1630.279785  -1100.000000  -18590.00000    285.043335
   11853           0      1267.995483  -1100.000000  -18590.00000    337.825897
   11854           0       905.711060  -1100.000000  -18590.00000    377.845856
   11855           0       543.426575  -1100.000000  -18590.00000    405.043884
   11856           0       181.142136  -1100.000000  -18590.00000    419.402710
   11857           0      -181.142288  -1100.000000  -18590.00000    420.926605
   11858           0      -543.426758  -1100.000000  -18590.00000    409.638397
   11859           0      -905.711182  -1100.000000  -18590.00000    385.586426
   11860           0     -1267.995605  -1100.000000  -18590.00000    348.867279
   11861           0     -1630.280029  -1100.000000  -18590.00000    299.686188
   11862           0     -1992.564453  -1100.000000  -18590.00000    238.556061
   11863           0     -2354.848633  -1100.000000  -18590.00000    167.122223
   11864           0     -2717.133301  -1099.999878  -18590.00000     93.892723
   11865           0      2717.133057  -1100.000122  -18214.44531     58.838783
   11866           0      2354.848633  -1100.000000  -18214.44531    142.552628
   11867           0      1992.564331  -1100.000000  -18214.44531    219.837921
   11868           0      1630.279785  -1100.000000  -18214.44531    285.205292
   11869           0      1267.995483  -1100.000000  -18214.44531    337.980621
   11870           0       905.711060  -1100.000000  -18214.44531    377.987457
   11871           0       543.426575  -1100.000000  -18214.44531    405.166382
   11872           0       181.142136  -1100.000000  -18214.44531    419.499664
   11873           0      -181.142288  -1100.000000  -18214.44531    420.990753
   11874           0      -543.426758  -1100.000000  -18214.44531    409.661255
   11875           0      -905.711182  -1100.000000  -18214.44531    385.557587
   11876           0     -1267.995605  -1100.000000  -18214.44531    348.772675
   11877           0     -1630.280029  -1100.000000  -18214.44531    299.504303
   11878           0     -1992.564453  -1100.000000  -18214.44531    238.247009
   11879           0     -2354.848633  -1100.000000  -18214.44531    166.591904
   11880           0     -2717.133301  -1099.999878  -18214.44531     92.854996
   11881           0      2717.133057  -1100.000122  -17838.88867     58.866657
   11882           0      2354.848633  -1100.000000  -17838.88671    142.666565
   11883           0      1992.564331  -1100.000000  -17838.88671    219.960281
   11884           0      1630.279785  -1100.000000  -17838.88671    285.322723
   11885           0      1267.995483  -1100.000000  -17838.88671    338.086792
   11886           0       905.711060  -1100.000000  -17838.88671    378.077271
   11887           0       543.426575  -1100.000000  -17838.88671    405.234955
   11888           0       181.142136  -1100.000000  -17838.88671    419.541656
   11889           0      -181.142288  -1100.000000  -17838.88671    421.000061
   11890           0      -543.426758  -1100.000000  -17838.88671    409.630615
   11891           0      -905.711182  -1100.000000  -17838.88671    385.477936
   11892           0     -1267.995605  -1100.000000  -17838.88671    348.631226
   11893           0     -1630.280029  -1100.000000  -17838.88671    299.280945
   11894           0     -1992.564453  -1100.000000  -17838.88671    237.903809
   11895           0     -2354.848633  -1100.000000  -17838.88671    166.037949
   11896           0     -2717.133301  -1099.999878  -17838.88867     91.810356
   11897           0      2717.133057  -1100.000122  -17463.33007     58.868011
   11898           0      2354.848633  -1100.000000  -17463.32812    142.746658
   11899           0      1992.564331  -1100.000000  -17463.32812    220.044022
   11900           0      1630.279785  -1100.000000  -17463.32812    285.397247
   11901           0      1267.995483  -1100.000000  -17463.32812    338.146332
   11902           0       905.711060  -1100.000000  -17463.32812    378.117615
   11903           0       543.426575  -1100.000000  -17463.32812    405.252075
   11904           0       181.142136  -1100.000000  -17463.32812    419.531158
   11905           0      -181.142288  -1100.000000  -17463.32812    420.957031
   11906           0      -543.426758  -1100.000000  -17463.32812    409.548981
   11907           0      -905.711182  -1100.000000  -17463.32812    385.349701
   11908           0     -1267.995605  -1100.000000  -17463.32812    348.444946
   11909           0     -1630.280029  -1100.000000  -17463.32812    299.017853
   11910           0     -1992.564453  -1100.000000  -17463.32812    237.527710
   11911           0     -2354.848633  -1100.000000  -17463.32812    165.461014
   11912           0     -2717.133301  -1099.999878  -17463.33007     90.758858
   11913           0      2717.133057  -1100.000122  -17087.77539     58.843342
   11914           0      2354.848633  -1100.000000  -17087.77343    142.793442
   11915           0      1992.564331  -1100.000000  -17087.77343    220.089966
   11916           0      1630.279785  -1100.000000  -17087.77343    285.429901
   11917           0      1267.995483  -1100.000000  -17087.77343    338.160583
   11918           0       905.711060  -1100.000000  -17087.77343    378.109924
   11919           0       543.426575  -1100.000000  -17087.77343    405.219269
   11920           0       181.142136  -1100.000000  -17087.77343    419.469879
   11921           0      -181.142288  -1100.000000  -17087.77343    420.863312
   11922           0      -543.426758  -1100.000000  -17087.77343    409.417969
   11923           0      -905.711182  -1100.000000  -17087.77343    385.174408
   11924           0     -1267.995605  -1100.000000  -17087.77343    348.215118
   11925           0     -1630.280029  -1100.000000  -17087.77343    298.716034
   11926           0     -1992.564453  -1100.000000  -17087.77343    237.119507
   11927           0     -2354.848633  -1100.000000  -17087.77343    164.861572
   11928           0     -2717.133301  -1099.999878  -17087.77539     89.700577
   11929           0      2717.133057  -1100.000122  -16712.22070     58.793182
   11930           0      2354.848633  -1100.000000  -16712.21875    142.807449
   11931           0      1992.564331  -1100.000000  -16712.21875    220.098633
   11932           0      1630.279785  -1100.000000  -16712.21875    285.421356
   11933           0      1267.995483  -1100.000000  -16712.21875    338.130219
   11934           0       905.711060  -1100.000000  -16712.21875    378.054993
   11935           0       543.426575  -1100.000000  -16712.21875    405.137421
   11936           0       181.142136  -1100.000000  -16712.21875    419.358704
   11937           0      -181.142288  -1100.000000  -16712.21875    420.719910
   11938           0      -543.426758  -1100.000000  -16712.21875    409.238312
   11939           0      -905.711182  -1100.000000  -16712.21875    384.952820
   11940           0     -1267.995605  -1100.000000  -16712.21875    347.942444
   11941           0     -1630.279907  -1100.000000  -16712.21875    298.376129
   11942           0     -1992.564331  -1100.000000  -16712.21875    236.679550
   11943           0     -2354.848633  -1100.000000  -16712.21875    164.239792
   11944           0     -2717.133301  -1099.999878  -16712.22070     88.635544
   11945           0      2717.133057  -1100.000122  -16336.66406     58.718235
   11946           0      2354.848633  -1100.000000  -16336.66210    142.788940
   11947           0      1992.564331  -1100.000000  -16336.66210    220.070251
   11948           0      1630.279785  -1100.000000  -16336.66210    285.371735
   11949           0      1267.995483  -1100.000000  -16336.66210    338.055389
   11950           0       905.711060  -1100.000000  -16336.66210    377.952881
   11951           0       543.426575  -1100.000000  -16336.66210    405.006592
   11952           0       181.142136  -1100.000000  -16336.66210    419.197662
   11953           0      -181.142288  -1100.000000  -16336.66210    420.526733
   11954           0      -543.426758  -1100.000000  -16336.66210    409.010101
   11955           0      -905.711182  -1100.000000  -16336.66210    384.684998
   11956           0     -1267.995605  -1100.000000  -16336.66210    347.626953
   11957           0     -1630.279785  -1100.000000  -16336.66210    297.998077
   11958           0     -1992.564209  -1100.000000  -16336.66210    236.207840
   11959           0     -2354.849121  -1100.000000  -16336.66210    163.595520
   11960           0     -2717.133301  -1099.999878  -16336.66406     87.563766
   11961           0      2717.133057  -1100.000122  -15961.11230     58.619198
   11962           0      2354.848633  -1100.000000  -15961.11425    142.738113
   11963           0      1992.564331  -1100.000000  -15961.11425    220.004669
   11964           0      1630.279785  -1100.000000  -15961.11425    285.280792
   11965           0      1267.995483  -1100.000000  -15961.11425    337.935608
   11966           0       905.711060  -1100.000000  -15961.11425    377.803101
   11967           0       543.426575  -1100.000000  -15961.11425    404.826141
   11968           0       181.142136  -1100.000000  -15961.11425    418.986115
   11969           0      -181.142288  -1100.000000  -15961.11425    420.283173
   11970           0      -543.426758  -1100.000000  -15961.11425    408.732788
   11971           0      -905.711182  -1100.000000  -15961.11425    384.370270
   11972           0     -1267.995605  -1100.000000  -15961.11425    347.268066
   11973           0     -1630.279785  -1100.000000  -15961.11425    297.581421
   11974           0     -1992.564209  -1100.000000  -15961.11425    235.704025
   11975           0     -2354.849121  -1100.000000  -15961.11425    162.928696
   11976           0     -2717.133301  -1099.999878  -15961.11230     86.485458
   11977           0      2717.133057  -1100.000122  -15585.55566     58.497139
   11978           0      2354.848633  -1100.000000  -15585.55664    142.654907
   11979           0      1992.564331  -1100.000000  -15585.55664    219.901505
   11980           0      1630.279785  -1100.000000  -15585.55664    285.147644
   11981           0      1267.995483  -1100.000000  -15585.55664    337.769897
   11982           0       905.711060  -1100.000000  -15585.55664    377.604309
   11983           0       543.426575  -1100.000000  -15585.55664    404.594635
   11984           0       181.142136  -1100.000000  -15585.55664    418.722443
   11985           0      -181.142288  -1100.000000  -15585.55664    419.987610
   11986           0      -543.426758  -1100.000000  -15585.55664    408.404663
   11987           0      -905.711182  -1100.000000  -15585.55664    384.007263
   11988           0     -1267.995605  -1100.000000  -15585.55664    346.864532
   11989           0     -1630.279785  -1100.000000  -15585.55664    297.125153
   11990           0     -1992.564209  -1100.000000  -15585.55664    235.167343
   11991           0     -2354.849121  -1100.000000  -15585.55664    162.238724
   11992           0     -2717.133301  -1099.999878  -15585.55566     85.400772
   11993           0      2717.133057  -1100.000122  -15209.99902     58.352760
   11994           0      2354.848633  -1100.000000  -15210.00000    142.539291
   11995           0      1992.564331  -1100.000000  -15210.00000    219.760010
   11996           0      1630.279785  -1100.000000  -15210.00000    284.971100
   11997           0      1267.995483  -1100.000000  -15210.00000    337.556519
   11998           0       905.711060  -1100.000000  -15210.00000    377.354553
   11999           0       543.426575  -1100.000000  -15210.00000    404.309937
   12000           0       181.142136  -1100.000000  -15210.00000    418.404419
   12001           0      -181.142288  -1100.000000  -15210.00000    419.637726
   12002           0      -543.426758  -1100.000000  -15210.00000    408.023499
   12003           0      -905.711182  -1100.000000  -15210.00000    383.593811
   12004           0     -1267.995605  -1100.000000  -15210.00000    346.414459
   12005           0     -1630.279785  -1100.000000  -15210.00000    296.627625
   12006           0     -1992.564209  -1100.000000  -15210.00000    234.596573
   12007           0     -2354.849121  -1100.000000  -15210.00000    161.524979
   12008           0     -2717.133301  -1099.999878  -15209.99902     84.309746
   12009           0      2717.133057  -1100.000122  -14834.44433     58.187469
   12010           0      2354.848633  -1100.000000  -14834.44433    142.391235
   12011           0      1992.564331  -1100.000000  -14834.44433    219.578995
   12012           0      1630.279785  -1100.000000  -14834.44433    284.749451
   12013           0      1267.995483  -1100.000000  -14834.44433    337.293182
   12014           0       905.711060  -1100.000000  -14834.44433    377.051086
   12015           0       543.426575  -1100.000000  -14834.44433    403.968872
   12016           0       181.142136  -1100.000000  -14834.44433    418.028717
   12017           0      -181.142288  -1100.000000  -14834.44433    419.230164
   12018           0      -543.426758  -1100.000000  -14834.44433    407.586121
   12019           0      -905.711182  -1100.000000  -14834.44433    383.126923
   12020           0     -1267.995605  -1100.000000  -14834.44433    345.915192
   12021           0     -1630.279785  -1100.000000  -14834.44433    296.086761
   12022           0     -1992.564209  -1100.000000  -14834.44433    233.990158
   12023           0     -2354.849121  -1100.000000  -14834.44433    160.786484
   12024           0     -2717.133301  -1099.999878  -14834.44335     83.212891
   12025           0      2717.133057  -1100.000122  -14458.88769     58.004448
   12026           0      2354.848633  -1100.000000  -14458.88769    142.209869
   12027           0      1992.564331  -1100.000000  -14458.88769    219.357208
   12028           0      1630.279785  -1100.000000  -14458.88769    284.480164
   12029           0      1267.995483  -1100.000000  -14458.88769    336.976898
   12030           0       905.711060  -1100.000000  -14458.88769    376.690308
   12031           0       543.426575  -1100.000000  -14458.88769    403.567505
   12032           0       181.142136  -1100.000000  -14458.88769    417.591125
   12033           0      -181.142288  -1100.000000  -14458.88769    418.760651
   12034           0      -543.426758  -1100.000000  -14458.88769    407.088287
   12035           0      -905.711182  -1100.000000  -14458.88769    382.602722
   12036           0     -1267.995605  -1100.000000  -14458.88769    345.363403
   12037           0     -1630.279785  -1100.000000  -14458.88769    295.499664
   12038           0     -1992.564209  -1100.000000  -14458.88769    233.346039
   12039           0     -2354.849121  -1100.000000  -14458.88769    160.022247
   12040           0     -2717.133301  -1099.999878  -14458.88769     82.110413
   12041           0      2717.133057  -1100.000122  -14083.33593     57.803040
   12042           0      2354.848633  -1100.000000  -14083.33984    141.995316
   12043           0      1992.564331  -1100.000000  -14083.33984    219.092453
   12044           0      1630.279785  -1100.000000  -14083.33984    284.160614
   12045           0      1267.995483  -1100.000000  -14083.33984    336.603638
   12046           0       905.711060  -1100.000000  -14083.33984    376.267548
   12047           0       543.426575  -1100.000000  -14083.33984    403.100616
   12048           0       181.142136  -1100.000000  -14083.33984    417.086212
   12049           0      -181.142288  -1100.000000  -14083.33984    418.223755
   12050           0      -543.426758  -1100.000000  -14083.33984    406.524750
   12051           0      -905.711182  -1100.000000  -14083.33984    382.016327
   12052           0     -1267.995605  -1100.000000  -14083.33984    344.754547
   12053           0     -1630.279785  -1100.000000  -14083.33984    294.863007
   12054           0     -1992.564209  -1100.000000  -14083.33984    232.661530
   12055           0     -2354.849121  -1100.000000  -14083.33984    159.230774
   12056           0     -2717.133301  -1099.999878  -14083.33691     81.003548
   12057           0      2717.133057  -1100.000122  -13707.78027     57.588005
   12058           0      2354.848633  -1100.000000  -13707.78320    141.746338
   12059           0      1992.564331  -1100.000000  -13707.78320    218.783066
   12060           0      1630.279785  -1100.000000  -13707.78320    283.786804
   12061           0      1267.995483  -1100.000000  -13707.78320    336.168701
   12062           0       905.711060  -1100.000000  -13707.78320    375.777191
   12063           0       543.426575  -1100.000000  -13707.78320    402.562042
   12064           0       181.142136  -1100.000000  -13707.78320    416.507324
   12065           0      -181.142288  -1100.000000  -13707.78320    417.612701
   12066           0      -543.426758  -1100.000000  -13707.78320    405.889008
   12067           0      -905.711182  -1100.000000  -13707.78320    381.361664
   12068           0     -1267.995605  -1100.000000  -13707.78320    344.083649
   12069           0     -1630.279785  -1100.000000  -13707.78320    294.172150
   12070           0     -1992.564209  -1100.000000  -13707.78320    231.934219
   12071           0     -2354.849121  -1100.000000  -13707.78320    158.410355
   12072           0     -2717.133301  -1099.999878  -13707.78027     79.892540
   12073           0      2717.133057  -1100.000122  -13332.22460     57.360100
   12074           0      2354.848633  -1100.000000  -13332.22656    141.463821
   12075           0      1992.564331  -1100.000000  -13332.22656    218.425583
   12076           0      1630.279785  -1100.000000  -13332.22656    283.354401
   12077           0      1267.995483  -1100.000000  -13332.22656    335.666321
   12078           0       905.711060  -1100.000000  -13332.22656    375.212280
   12079           0       543.426575  -1100.000000  -13332.22656    401.944000
   12080           0       181.142136  -1100.000000  -13332.22656    415.846375
   12081           0      -181.142288  -1100.000000  -13332.22656    416.919312
   12082           0      -543.426758  -1100.000000  -13332.22656    405.173065
   12083           0      -905.711182  -1100.000000  -13332.22656    380.631378
   12084           0     -1267.995605  -1100.000000  -13332.22656    343.344177
   12085           0     -1630.279785  -1100.000000  -13332.22656    293.422211
   12086           0     -1992.564209  -1100.000000  -13332.22656    231.159363
   12087           0     -2354.849121  -1100.000000  -13332.22656    157.560913
   12088           0     -2717.133301  -1099.999878  -13332.22460     78.779762
   12089           0      2717.133057  -1100.000122  -12956.67382     57.130405
   12090           0      2354.848633  -1100.000000  -12956.67968    141.146454
   12091           0      1992.564331  -1100.000000  -12956.67968    218.016602
   12092           0      1630.279785  -1100.000000  -12956.67968    282.858337
   12093           0      1267.995483  -1100.000000  -12956.67968    335.089355
   12094           0       905.711060  -1100.000000  -12956.67968    374.564636
   12095           0       543.426575  -1100.000000  -12956.67968    401.237244
   12096           0       181.142136  -1100.000000  -12956.67968    415.093567
   12097           0      -181.142288  -1100.000000  -12956.67968    416.133698
   12098           0      -543.426758  -1100.000000  -12956.67968    404.367401
   12099           0      -905.711182  -1100.000000  -12956.67968    379.816833
   12100           0     -1267.995605  -1100.000000  -12956.67968    342.528351
   12101           0     -1630.279785  -1100.000000  -12956.67968    292.607117
   12102           0     -1992.564209  -1100.000000  -12956.67968    230.333054
   12103           0     -2354.849121  -1100.000000  -12956.67968    156.678329
   12104           0     -2717.133301  -1099.999878  -12956.67382     77.665581
   12105           0      2717.133057  -1100.000122  -12581.11718     56.896732
   12106           0      2354.848633  -1100.000000  -12581.12304    140.789795
   12107           0      1992.564331  -1100.000000  -12581.12304    217.553940
   12108           0      1630.279785  -1100.000000  -12581.12304    282.291718
   12109           0      1267.995483  -1100.000000  -12581.12304    334.429718
   12110           0       905.711060  -1100.000000  -12581.12304    373.824066
   12111           0       543.426575  -1100.000000  -12581.12304    400.430725
   12112           0       181.142136  -1100.000000  -12581.12304    414.237152
   12113           0      -181.142288  -1100.000000  -12581.12304    415.244049
   12114           0      -543.426758  -1100.000000  -12581.12304    403.460602
   12115           0      -905.711182  -1100.000000  -12581.12304    378.907257
   12116           0     -1267.995605  -1100.000000  -12581.12304    341.627258
   12117           0     -1630.279785  -1100.000000  -12581.12304    291.719055
   12118           0     -1992.564209  -1100.000000  -12581.12304    229.451538
   12119           0     -2354.849121  -1100.000000  -12581.12304    155.759735
   12120           0     -2717.133301  -1099.999878  -12581.11816     76.561920
   12121           0      2717.133057  -1100.000122  -12205.56054     56.674252
   12122           0      2354.848633  -1100.000000  -12205.56445    140.400253
   12123           0      1992.564331  -1100.000000  -12205.56445    217.030975
   12124           0      1630.279785  -1100.000000  -12205.56445    281.647766
   12125           0      1267.995483  -1100.000000  -12205.56445    333.676971
   12126           0       905.711060  -1100.000000  -12205.56445    372.978760
   12127           0       543.426575  -1100.000000  -12205.56445    399.511047
   12128           0       181.142136  -1100.000000  -12205.56445    413.263000
   12129           0      -181.142288  -1100.000000  -12205.56445    414.236084
   12130           0      -543.426758  -1100.000000  -12205.56445    402.438904
   12131           0      -905.711182  -1100.000000  -12205.56445    377.890198
   12132           0     -1267.995605  -1100.000000  -12205.56445    340.629669
   12133           0     -1630.279785  -1100.000000  -12205.56445    290.750031
   12134           0     -1992.564209  -1100.000000  -12205.56445    228.506958
   12135           0     -2354.849121  -1100.000000  -12205.56445    154.806244
   12136           0     -2717.133301  -1099.999878  -12205.56054     75.460197
   12137           0      2717.133057  -1100.000122  -11830.00000     56.463497
   12138           0      2354.848633  -1100.000000  -11830.00097    139.974792
   12139           0      1992.564331  -1100.000000  -11830.00097    216.444077
   12140           0      1630.279785  -1100.000000  -11830.00097    280.917358
   12141           0      1267.995483  -1100.000000  -11830.00097    332.819916
   12142           0       905.711060  -1100.000000  -11830.00097    372.014862
   12143           0       543.426575  -1100.000000  -11830.00097    398.462799
   12144           0       181.142136  -1100.000000  -11830.00097    412.154877
   12145           0      -181.142288  -1100.000000  -11830.00097    413.093323
   12146           0      -543.426758  -1100.000000  -11830.00097    401.286407
   12147           0      -905.711182  -1100.000000  -11830.00097    376.751038
   12148           0     -1267.995605  -1100.000000  -11830.00097    339.523438
   12149           0     -1630.279785  -1100.000000  -11830.00097    289.689819
   12150           0     -1992.564209  -1100.000000  -11830.00097    227.494110
   12151           0     -2354.849121  -1100.000000  -11830.00097    153.815369
   12152           0     -2717.133301  -1099.999878  -11830.00000     74.374855
   12153           0      2717.133057  -1100.000122  -11454.43945     56.286568
   12154           0      2354.848633  -1100.000000  -11454.43554    139.512344
   12155           0      1992.564331  -1100.000000  -11454.43554    215.787842
   12156           0      1630.279785  -1100.000000  -11454.43554    280.090363
   12157           0      1267.995483  -1100.000000  -11454.43554    331.844574
   12158           0       905.711060  -1100.000000  -11454.43554    370.915680
   12159           0       543.426575  -1100.000000  -11454.43554    397.267395
   12160           0       181.142136  -1100.000000  -11454.43554    410.893005
   12161           0      -181.142288  -1100.000000  -11454.43554    411.795868
   12162           0      -543.426758  -1100.000000  -11454.43554    399.983948
   12163           0      -905.711182  -1100.000000  -11454.43554    375.472321
   12164           0     -1267.995605  -1100.000000  -11454.43554    338.293304
   12165           0     -1630.279785  -1100.000000  -11454.43554    288.526764
   12166           0     -1992.564209  -1100.000000  -11454.43554    226.405945
   12167           0     -2354.849121  -1100.000000  -11454.43554    152.783157
   12168           0     -2717.133301  -1099.999878  -11454.44140     73.313576
   12169           0      2717.133057  -1100.000122  -11078.88867     56.156578
   12170           0      2354.848633  -1100.000000  -11078.88867    139.015839
   12171           0      1992.564331  -1100.000000  -11078.88867    215.055252
   12172           0      1630.279785  -1100.000000  -11078.88867    279.155487
   12173           0      1267.995483  -1100.000000  -11078.88867    330.734955
   12174           0       905.711060  -1100.000000  -11078.88867    369.661804
   12175           0       543.426575  -1100.000000  -11078.88867    395.902954
   12176           0       181.142136  -1100.000000  -11078.88867    409.454285
   12177           0      -181.142288  -1100.000000  -11078.88867    410.320496
   12178           0      -543.426758  -1100.000000  -11078.88867    398.509277
   12179           0      -905.711182  -1100.000000  -11078.88867    374.033630
   12180           0     -1267.995605  -1100.000000  -11078.88867    336.921997
   12181           0     -1630.279785  -1100.000000  -11078.88867    287.247864
   12182           0     -1992.564209  -1100.000000  -11078.88867    225.233307
   12183           0     -2354.849121  -1100.000000  -11078.88867    151.709488
   12184           0     -2717.133301  -1099.999878  -11078.88867     72.289734
   12185           0      2717.133057  -1100.000122  -10703.33203     56.097157
   12186           0      2354.848633  -1100.000000  -10703.33007    138.487289
   12187           0      1992.564331  -1100.000000  -10703.33007    214.239944
   12188           0      1630.279785  -1100.000000  -10703.33007    278.098816
   12189           0      1267.995483  -1100.000000  -10703.33007    329.472321
   12190           0       905.711060  -1100.000000  -10703.33007    368.230438
   12191           0       543.426575  -1100.000000  -10703.33007    394.343933
   12192           0       181.142136  -1100.000000  -10703.33007    407.811676
   12193           0      -181.142288  -1100.000000  -10703.33007    408.639801
   12194           0      -543.426758  -1100.000000  -10703.33007    396.836029
   12195           0      -905.711182  -1100.000000  -10703.33007    372.411133
   12196           0     -1267.995605  -1100.000000  -10703.33007    335.389374
   12197           0     -1630.279785  -1100.000000  -10703.33007    285.837463
   12198           0     -1992.564209  -1100.000000  -10703.33007    223.967560
   12199           0     -2354.849121  -1100.000000  -10703.33007    150.594162
   12200           0     -2717.133301  -1099.999878  -10703.33203     71.319145
   12201           0      2717.133057  -1100.000122  -10327.77539     56.137314
   12202           0      2354.848633  -1100.000000  -10327.77246    137.930893
   12203           0      1992.564331  -1100.000000  -10327.77246    213.334778
   12204           0      1630.279785  -1100.000000  -10327.77246    276.905426
   12205           0      1267.995483  -1100.000000  -10327.77246    328.035065
   12206           0       905.711060  -1100.000000  -10327.77246    366.595154
   12207           0       543.426575  -1100.000000  -10327.77246    392.560516
   12208           0       181.142136  -1100.000000  -10327.77246    405.933380
   12209           0      -181.142288  -1100.000000  -10327.77246    406.721954
   12210           0      -543.426758  -1100.000000  -10327.77246    394.933655
   12211           0      -905.711182  -1100.000000  -10327.77246    370.577148
   12212           0     -1267.995605  -1100.000000  -10327.77246    333.672089
   12213           0     -1630.279785  -1100.000000  -10327.77246    284.278412
   12214           0     -1992.564209  -1100.000000  -10327.77246    222.599075
   12215           0     -2354.849121  -1100.000000  -10327.77246    149.437836
   12216           0     -2717.133301  -1099.999878  -10327.77539     70.425827
   12217           0      2717.133057  -1100.000122  -9952.218750     56.314651
   12218           0      2354.848633  -1100.000000  -9952.215820    137.353439
   12219           0      1992.564331  -1100.000000  -9952.215820    212.332611
   12220           0      1630.279785  -1100.000000  -9952.215820    275.558075
   12221           0      1267.995483  -1100.000000  -9952.215820    326.398376
   12222           0       905.711060  -1100.000000  -9952.215820    364.725250
   12223           0       543.426575  -1100.000000  -9952.215820    390.517853
   12224           0       181.142136  -1100.000000  -9952.215820    403.782471
   12225           0      -181.142288  -1100.000000  -9952.215820    404.529541
   12226           0      -543.426758  -1100.000000  -9952.215820    392.766479
   12227           0      -905.711182  -1100.000000  -9952.215820    368.499542
   12228           0     -1267.995605  -1100.000000  -9952.215820    331.743408
   12229           0     -1630.279785  -1100.000000  -9952.215820    282.551147
   12230           0     -1992.564209  -1100.000000  -9952.215820    221.117905
   12231           0     -2354.849121  -1100.000000  -9952.215820    148.243591
   12232           0     -2717.133301  -1099.999878  -9952.218750     69.641876
   12233           0      2717.133057  -1100.000122  -9576.661133     56.677242
   12234           0      2354.848633  -1100.000000  -9576.657227    136.765747
   12235           0      1992.564331  -1100.000000  -9576.657227    211.226334
   12236           0      1630.279785  -1100.000000  -9576.657227    274.037567
   12237           0      1267.995483  -1100.000000  -9576.657227    324.533569
   12238           0       905.711060  -1100.000000  -9576.657227    362.584930
   12239           0       543.426575  -1100.000000  -9576.657227    388.175293
   12240           0       181.142136  -1100.000000  -9576.657227    401.315643
   12241           0      -181.142288  -1100.000000  -9576.657227    402.019012
   12242           0      -543.426758  -1100.000000  -9576.657227    390.293030
   12243           0      -905.711182  -1100.000000  -9576.657227    366.141052
   12244           0     -1267.995605  -1100.000000  -9576.657227    329.572632
   12245           0     -1630.279785  -1100.000000  -9576.657227    280.633789
   12246           0     -1992.564209  -1100.000000  -9576.657227    219.513458
   12247           0     -2354.849121  -1100.000000  -9576.657227    147.018341
   12248           0     -2717.133301  -1099.999878  -9576.661133     69.008080
   12249           0      2717.133057  -1100.000122  -9201.110352     57.285305
   12250           0      2354.848633  -1100.000000  -9201.109375    136.183441
   12251           0      1992.564331  -1100.000000  -9201.109375    210.009842
   12252           0      1630.279785  -1100.000000  -9201.109375    272.323151
   12253           0      1267.995483  -1100.000000  -9201.109375    322.408600
   12254           0       905.711060  -1100.000000  -9201.109375    360.133514
   12255           0       543.426575  -1100.000000  -9201.109375    385.486298
   12256           0       181.142136  -1100.000000  -9201.109375    398.483246
   12257           0      -181.142288  -1100.000000  -9201.109375    399.140350
   12258           0      -543.426758  -1100.000000  -9201.109375    387.465515
   12259           0      -905.711182  -1100.000000  -9201.109375    363.459167
   12260           0     -1267.995605  -1100.000000  -9201.109375    327.125244
   12261           0     -1630.279785  -1100.000000  -9201.109375    278.502655
   12262           0     -1992.564209  -1100.000000  -9201.109375    217.776291
   12263           0     -2354.849121  -1100.000000  -9201.109375    145.772949
   12264           0     -2717.133301  -1099.999878  -9201.110352     68.580383
   12265           0      2717.133057  -1100.000122  -8825.558594     58.214958
   12266           0      2354.848633  -1100.000000  -8825.562500    135.628235
   12267           0      1992.564331  -1100.000000  -8825.562500    208.679016
   12268           0      1630.279785  -1100.000000  -8825.562500    270.392120
   12269           0      1267.995483  -1100.000000  -8825.562500    319.987061
   12270           0       905.711060  -1100.000000  -8825.562500    357.324249
   12271           0       543.426575  -1100.000000  -8825.562500    382.397064
   12272           0       181.142136  -1100.000000  -8825.562500    395.227478
   12273           0      -181.142288  -1100.000000  -8825.562500    395.835419
   12274           0      -543.426758  -1100.000000  -8825.562500    384.228943
   12275           0      -905.711182  -1100.000000  -8825.562500    360.405273
   12276           0     -1267.995605  -1100.000000  -8825.562500    324.362122
   12277           0     -1630.279785  -1100.000000  -8825.562500    276.131744
   12278           0     -1992.564209  -1100.000000  -8825.562500    215.898224
   12279           0     -2354.849121  -1100.000000  -8825.562500    144.524414
   12280           0     -2717.133301  -1099.999878  -8825.559570     68.431023
   12281           0      2717.133057  -1100.000122  -8450.000977     59.554363
   12282           0      2354.848633  -1100.000000  -8450.000977    135.132187
   12283           0      1992.564331  -1100.000000  -8450.000977    207.232391
   12284           0      1630.279785  -1100.000000  -8450.000977    268.220825
   12285           0      1267.995483  -1100.000000  -8450.000977    317.228271
   12286           0       905.711060  -1100.000000  -8450.000977    354.103882
   12287           0       543.426575  -1100.000000  -8450.000977    378.845612
   12288           0       181.142136  -1100.000000  -8450.000977    391.482117
   12289           0      -181.142288  -1100.000000  -8450.000977    392.037445
   12290           0      -543.426758  -1100.000000  -8450.000977    380.520172
   12291           0      -905.711182  -1100.000000  -8450.000977    356.923920
   12292           0     -1267.995605  -1100.000000  -8450.000977    321.239838
   12293           0     -1630.279785  -1100.000000  -8450.000977    273.493683
   12294           0     -1992.564209  -1100.000000  -8450.000977    213.873474
   12295           0     -2354.849121  -1100.000000  -8450.000977    143.299759
   12296           0     -2717.133301  -1099.999878  -8450.000977     68.650734
   12297           0      2717.133057  -1100.000122  -8074.442383     61.409122
   12298           0      2354.848633  -1100.000000  -8074.439453    134.739868
   12299           0      1992.564331  -1100.000000  -8074.439453    205.673096
   12300           0      1630.279785  -1100.000000  -8074.439453    265.785309
   12301           0      1267.995483  -1100.000000  -8074.439453    314.087646
   12302           0       905.711060  -1100.000000  -8074.439453    350.412567
   12303           0       543.426575  -1100.000000  -8074.439453    374.761810
   12304           0       181.142136  -1100.000000  -8074.439453    387.171356
   12305           0      -181.142288  -1100.000000  -8074.439453    387.670197
   12306           0      -543.426758  -1100.000000  -8074.439453    376.267395
   12307           0      -905.711182  -1100.000000  -8074.439453    352.952820
   12308           0     -1267.995605  -1100.000000  -8074.439453    317.710541
   12309           0     -1630.279785  -1100.000000  -8074.439453    270.560669
   12310           0     -1992.564209  -1100.000000  -8074.439453    211.700623
   12311           0     -2354.849121  -1100.000000  -8074.439453    142.138123
   12312           0     -2717.133301  -1099.999878  -8074.442383     69.348633
   12313           0      2717.133057  -1100.000122  -7698.884277     63.894855
   12314           0      2354.848633  -1100.000000  -7698.879883    134.509232
   12315           0      1992.564331  -1100.000000  -7698.879883    204.011642
   12316           0      1630.279785  -1100.000000  -7698.879883    263.061890
   12317           0      1267.995483  -1100.000000  -7698.879883    310.516693
   12318           0       905.711060  -1100.000000  -7698.879883    346.183014
   12319           0       543.426575  -1100.000000  -7698.879883    370.065796
   12320           0       181.142136  -1100.000000  -7698.879883    382.208801
   12321           0      -181.142288  -1100.000000  -7698.879883    382.646667
   12322           0      -543.426758  -1100.000000  -7698.879883    371.389252
   12323           0      -905.711182  -1100.000000  -7698.879883    348.422180
   12324           0     -1267.995605  -1100.000000  -7698.879883    313.722046
   12325           0     -1630.279785  -1100.000000  -7698.879883    267.304688
   12326           0     -1992.564209  -1100.000000  -7698.879883    209.385452
   12327           0     -2354.849121  -1100.000000  -7698.879883    141.093628
   12328           0     -2717.133301  -1099.999878  -7698.884766     70.657539
   12329           0      2717.133057  -1100.000122  -7323.327637     67.139435
   12330           0      2354.848633  -1100.000000  -7323.321289    134.519211
   12331           0      1992.564331  -1100.000000  -7323.321289    202.267273
   12332           0      1630.279785  -1100.000000  -7323.321289    260.029358
   12333           0      1267.995483  -1100.000000  -7323.321289    306.463409
   12334           0       905.711060  -1100.000000  -7323.321289    341.340820
   12335           0       543.426575  -1100.000000  -7323.321289    364.667755
   12336           0       181.142136  -1100.000000  -7323.321289    376.496613
   12337           0      -181.142288  -1100.000000  -7323.321289    376.868347
   12338           0      -543.426758  -1100.000000  -7323.321289    365.794037
   12339           0      -905.711182  -1100.000000  -7323.321289    343.254425
   12340           0     -1267.995605  -1100.000000  -7323.321289    309.218781
   12341           0     -1630.279785  -1100.000000  -7323.321289    263.700195
   12342           0     -1992.564209  -1100.000000  -7323.321289    206.942520
   12343           0     -2354.849121  -1100.000000  -7323.321289    140.241364
   12344           0     -2717.133301  -1099.999878  -7323.327148     72.722855
   12345           0      2717.133057  -1100.000122  -6947.776367     71.269463
   12346           0      2354.848633  -1100.000000  -6947.774902    134.868896
   12347           0      1992.564331  -1100.000000  -6947.774902    200.472427
   12348           0      1630.279785  -1100.000000  -6947.774902    256.670807
   12349           0      1267.995483  -1100.000000  -6947.774902    301.873718
   12350           0       905.711060  -1100.000000  -6947.774902    335.803986
   12351           0       543.426575  -1100.000000  -6947.774902    358.467041
   12352           0       181.142136  -1100.000000  -6947.774902    369.924469
   12353           0      -181.142288  -1100.000000  -6947.774902    370.224487
   12354           0      -543.426758  -1100.000000  -6947.774902    359.379364
   12355           0      -905.711182  -1100.000000  -6947.774902    337.364868
   12356           0     -1267.995605  -1100.000000  -6947.774902    304.142456
   12357           0     -1630.279785  -1100.000000  -6947.774902    259.725739
   12358           0     -1992.564209  -1100.000000  -6947.774902    204.400131
   12359           0     -2354.849121  -1100.000000  -6947.774902    139.679947
   12360           0     -2717.133301  -1099.999878  -6947.776367     75.701843
   12361           0      2717.133057  -1100.000122  -6572.225586     76.410278
   12362           0      2354.848633  -1100.000000  -6572.228027    135.681168
   12363           0      1992.564331  -1100.000000  -6572.228027    198.675873
   12364           0      1630.279785  -1100.000000  -6572.228027    252.975693
   12365           0      1267.995483  -1100.000000  -6572.228027    296.691650
   12366           0       905.711060  -1100.000000  -6572.228027    329.483124
   12367           0       543.426575  -1100.000000  -6572.228027    351.351532
   12368           0       181.142136  -1100.000000  -6572.228027    362.368286
   12369           0      -181.142288  -1100.000000  -6572.228027    362.590118
   12370           0      -543.426758  -1100.000000  -6572.228027    352.030731
   12371           0      -905.711182  -1100.000000  -6572.228027    330.660553
   12372           0     -1267.995605  -1100.000000  -6572.228027    298.433380
   12373           0     -1630.279785  -1100.000000  -6572.228027    255.366623
   12374           0     -1992.564209  -1100.000000  -6572.228027    201.804031
   12375           0     -2354.849121  -1100.000000  -6572.228027    139.534882
   12376           0     -2717.133301  -1099.999878  -6572.225098     79.748901
   12377           0      2717.133057  -1100.000122  -6196.666992     82.670425
   12378           0      2354.848633  -1100.000000  -6196.666992    137.102341
   12379           0      1992.564331  -1100.000000  -6196.666992    196.946060
   12380           0      1630.279785  -1100.000000  -6196.666992    248.943130
   12381           0      1267.995483  -1100.000000  -6196.666992    290.861847
   12382           0       905.711060  -1100.000000  -6196.666992    322.281555
   12383           0       543.426575  -1100.000000  -6196.666992    343.196564
   12384           0       181.142136  -1100.000000  -6196.666992    353.689148
   12385           0      -181.142288  -1100.000000  -6196.666992    353.825470
   12386           0      -543.426758  -1100.000000  -6196.666992    343.621399
   12387           0      -905.711182  -1100.000000  -6196.666992    323.041595
   12388           0     -1267.995605  -1100.000000  -6196.666992    292.031982
   12389           0     -1630.279785  -1100.000000  -6196.666992    250.618408
   12390           0     -1992.564209  -1100.000000  -6196.666992    199.221558
   12391           0     -2354.849121  -1100.000000  -6196.666992    139.961090
   12392           0     -2717.133301  -1099.999878  -6196.666992     85.002960
   12393           0      2717.133057  -1100.000122  -5821.108398     90.138847
   12394           0      2354.848633  -1100.000000  -5821.105469    139.296494
   12395           0      1992.564331  -1100.000000  -5821.105469    195.373306
   12396           0      1630.279785  -1100.000000  -5821.105469    244.585449
   12397           0      1267.995483  -1100.000000  -5821.105469    284.331818
   12398           0       905.711060  -1100.000000  -5821.105469    314.097076
   12399           0       543.426575  -1100.000000  -5821.105469    333.866150
   12400           0       181.142136  -1100.000000  -5821.105469    343.733276
   12401           0      -181.142288  -1100.000000  -5821.105469    343.776154
   12402           0      -543.426758  -1100.000000  -5821.105469    334.013214
   12403           0      -905.711182  -1100.000000  -5821.105469    314.402557
   12404           0     -1267.995605  -1100.000000  -5821.105469    284.882446
   12405           0     -1630.279785  -1100.000000  -5821.105469    245.491211
   12406           0     -1992.564209  -1100.000000  -5821.105469    196.745453
   12407           0     -2354.849121  -1100.000000  -5821.105469    141.137421
   12408           0     -2717.133301  -1099.999878  -5821.108398     91.575897
   12409           0      2717.133057  -1100.000122  -5445.557129     98.871040
   12410           0      2354.848633  -1100.000000  -5445.558594    142.430984
   12411           0      1992.564331  -1100.000000  -5445.558594    194.070160
   12412           0      1630.279785  -1100.000000  -5445.558594    239.930084
   12413           0      1267.995483  -1100.000000  -5445.558594    277.053040
   12414           0       905.711060  -1100.000000  -5445.558594    304.821655
   12415           0       543.426575  -1100.000000  -5445.558594    323.210663
   12416           0       181.142136  -1100.000000  -5445.558594    332.329681
   12417           0      -181.142288  -1100.000000  -5445.558594    332.270325
   12418           0      -543.426758  -1100.000000  -5445.558594    323.054260
   12419           0      -905.711182  -1100.000000  -5445.558594    304.632507
   12420           0     -1267.995605  -1100.000000  -5445.558594    276.933868
   12421           0     -1630.279785  -1100.000000  -5445.558594    240.013123
   12422           0     -1992.564209  -1100.000000  -5445.558594    194.495529
   12423           0     -2354.849121  -1100.000000  -5445.558594    143.254959
   12424           0     -2717.133301  -1099.999878  -5445.557129     99.536606
   12425           0      2717.133057  -1100.000122  -5070.000488    108.883400
   12426           0      2354.848633  -1100.000000  -5070.000977    146.658661
   12427           0      1992.564331  -1100.000000  -5070.000977    193.165237
   12428           0      1630.279785  -1100.000000  -5070.000977    235.019348
   12429           0      1267.995483  -1100.000000  -5070.000977    268.982178
   12430           0       905.711060  -1100.000000  -5070.000977    294.340271
   12431           0       543.426575  -1100.000000  -5070.000977    311.064972
   12432           0       181.142136  -1100.000000  -5070.000977    319.286682
   12433           0      -181.142288  -1100.000000  -5070.000977    319.115479
   12434           0      -543.426758  -1100.000000  -5070.000977    310.577606
   12435           0      -905.711182  -1100.000000  -5070.000977    293.614227
   12436           0     -1267.995605  -1100.000000  -5070.000977    268.142578
   12437           0     -1630.279785  -1100.000000  -5070.000977    234.230453
   12438           0     -1992.564209  -1100.000000  -5070.000977    192.614746
   12439           0     -2354.849121  -1100.000000  -5070.000977    146.495773
   12440           0     -2717.133301  -1099.999878  -5070.000488    108.909752
   12441           0      2717.133057  -1100.000122  -4694.443359    120.129295
   12442           0      2354.848633  -1100.000000  -4694.442383    152.090057
   12443           0      1992.564331  -1100.000000  -4694.442383    192.788132
   12444           0      1630.279785  -1100.000000  -4694.442383    229.909576
   12445           0      1267.995483  -1100.000000  -4694.442383    260.081482
   12446           0       905.711060  -1100.000000  -4694.442383    282.533325
   12447           0       543.426575  -1100.000000  -4694.442383    297.248291
   12448           0       181.142136  -1100.000000  -4694.442383    304.391449
   12449           0      -181.142288  -1100.000000  -4694.442383    304.098206
   12450           0      -543.426758  -1100.000000  -4694.442383    296.400818
   12451           0      -905.711182  -1100.000000  -4694.442383    281.227539
   12452           0     -1267.995605  -1100.000000  -4694.442383    258.473450
   12453           0     -1630.279785  -1100.000000  -4694.442383    228.210175
   12454           0     -1992.564209  -1100.000000  -4694.442383    191.255325
   12455           0     -2354.849121  -1100.000000  -4694.442383    151.005951
   12456           0     -2717.133301  -1099.999878  -4694.443359    119.638084
   12457           0      2717.133057  -1100.000122  -4318.885254    132.493500
   12458           0      2354.848633  -1100.000000  -4318.880859    158.747925
   12459           0      1992.564331  -1100.000000  -4318.880859    193.046371
   12460           0      1630.279785  -1100.000000  -4318.880859    224.656570
   12461           0      1267.995483  -1100.000000  -4318.880859    250.315948
   12462           0       905.711060  -1100.000000  -4318.880859    269.270844
   12463           0       543.426575  -1100.000000  -4318.880859    281.559235
   12464           0       181.142136  -1100.000000  -4318.880859    287.402740
   12465           0      -181.142288  -1100.000000  -4318.880859    286.976746
   12466           0      -543.426758  -1100.000000  -4318.880859    280.322083
   12467           0      -905.711182  -1100.000000  -4318.880859    267.344116
   12468           0     -1267.995605  -1100.000000  -4318.880859    247.899719
   12469           0     -1630.279785  -1100.000000  -4318.880859    222.026352
   12470           0     -1992.564209  -1100.000000  -4318.880859    190.557663
   12471           0     -2354.849121  -1100.000000  -4318.880859    156.840424
   12472           0     -2717.133301  -1099.999878  -4318.885254    131.607941
   12473           0      2717.133057  -1100.000122  -3943.326904    145.737534
   12474           0      2354.848633  -1100.000000  -3943.320313    166.540054
   12475           0      1992.564331  -1100.000000  -3943.320313    193.977371
   12476           0      1630.279785  -1100.000000  -3943.320313    219.299622
   12477           0      1267.995483  -1100.000000  -3943.320313    239.641495
   12478           0       905.711060  -1100.000000  -3943.320313    254.411163
   12479           0       543.426575  -1100.000000  -3943.320313    263.769592
   12480           0       181.142136  -1100.000000  -3943.320313    268.044922
   12481           0      -181.142288  -1100.000000  -3943.320313    267.475281
   12482           0      -543.426758  -1100.000000  -3943.320313    262.114044
   12483           0      -905.711182  -1100.000000  -3943.320313    251.828430
   12484           0     -1267.995605  -1100.000000  -3943.320313    236.392822
   12485           0     -1630.279785  -1100.000000  -3943.320313    215.748886
   12486           0     -1992.564209  -1100.000000  -3943.320313    190.599197
   12487           0     -2354.849121  -1100.000000  -3943.320313    163.940674
   12488           0     -2717.133301  -1099.999878  -3943.327148    144.550873
   12489           0      2717.133057  -1100.000122  -3567.776123    159.510086
   12490           0      2354.848633  -1100.000000  -3567.774170    175.179825
   12491           0      1992.564331  -1100.000000  -3567.774170    195.499619
   12492           0      1630.279785  -1100.000000  -3567.774170    213.815247
   12493           0      1267.995483  -1100.000000  -3567.774170    227.994919
   12494           0       905.711060  -1100.000000  -3567.774170    237.790375
   12495           0       543.426575  -1100.000000  -3567.774170    243.620956
   12496           0       181.142136  -1100.000000  -3567.774170    245.999207
   12497           0      -181.142288  -1100.000000  -3567.774170    245.275604
   12498           0      -543.426758  -1100.000000  -3567.774170    241.522034
   12499           0      -905.711182  -1100.000000  -3567.774170    234.529312
   12500           0     -1267.995605  -1100.000000  -3567.774170    223.918320
   12501           0     -1630.279785  -1100.000000  -3567.774170    209.397171
   12502           0     -1992.564209  -1100.000000  -3567.774170    191.348083
   12503           0     -2354.849121  -1100.000000  -3567.774170    172.033051
   12504           0     -2717.133301  -1099.999878  -3567.776123    158.127777
   12505           0      2717.133057  -1100.000122  -3192.224609    173.204056
   12506           0      2354.848633  -1100.000000  -3192.227539    184.186111
   12507           0      1992.564331  -1100.000000  -3192.227539    197.322830
   12508           0      1630.279785  -1100.000000  -3192.227539    208.077454
   12509           0      1267.995483  -1100.000000  -3192.227539    215.261246
   12510           0       905.711060  -1100.000000  -3192.227539    219.224396
   12511           0       543.426575  -1100.000000  -3192.227539    220.819977
   12512           0       181.142136  -1100.000000  -3192.227539    220.900803
   12513           0      -181.142288  -1100.000000  -3192.227539    220.013947
   12514           0      -543.426758  -1100.000000  -3192.227539    218.261505
   12515           0      -905.711182  -1100.000000  -3192.227539    215.288208
   12516           0     -1267.995605  -1100.000000  -3192.227539    210.408157
   12517           0     -1630.279785  -1100.000000  -3192.227539    202.908386
   12518           0     -1992.564209  -1100.000000  -3192.227539    192.561447
   12519           0     -2354.849121  -1100.000000  -3192.227539    180.663315
   12520           0     -2717.133301  -1099.999878  -3192.224365    171.677505
   12521           0      2717.133057  -1100.000122  -2816.673584    186.053268
   12522           0      2354.848633  -1100.000000  -2816.681152    192.721817
   12523           0      1992.564331  -1100.000000  -2816.681152    198.895889
   12524           0      1630.279785  -1100.000000  -2816.681152    201.768005
   12525           0      1267.995483  -1100.000000  -2816.681152    201.271484
   12526           0       905.711060  -1100.000000  -2816.681152    198.525711
   12527           0       543.426575  -1100.000000  -2816.681152    195.082565
   12528           0       181.142136  -1100.000000  -2816.681152    192.371689
   12529           0      -181.142288  -1100.000000  -2816.681152    191.316483
   12530           0      -543.426758  -1100.000000  -2816.681152    192.067291
   12531           0      -905.711182  -1100.000000  -2816.681152    193.967651
   12532           0     -1267.995605  -1100.000000  -2816.681152    195.772629
   12533           0     -1630.279785  -1100.000000  -2816.681152    196.046295
   12534           0     -1992.564209  -1100.000000  -2816.681152    193.748154
   12535           0     -2354.849121  -1100.000000  -2816.681152    188.977753
   12536           0     -2717.133301  -1099.999878  -2816.673584    184.488785
   12537           0      2717.133057  -1100.000122  -2441.114502    196.741043
   12538           0      2354.848633  -1100.000000  -2441.117676    199.689896
   12539           0      1992.564331  -1100.000000  -2441.117676    199.279221
   12540           0      1630.279785  -1100.000000  -2441.117676    194.364548
   12541           0      1267.995483  -1100.000000  -2441.117676    185.817123
   12542           0       905.711060  -1100.000000  -2441.117676    175.646515
   12543           0       543.426575  -1100.000000  -2441.117676    166.307556
   12544           0       181.142136  -1100.000000  -2441.117676    160.204590
   12545           0      -181.142288  -1100.000000  -2441.117676    158.985474
   12546           0      -543.426758  -1100.000000  -2441.117676    162.887619
   12547           0      -905.711182  -1100.000000  -2441.117676    170.622345
   12548           0     -1267.995605  -1100.000000  -2441.117676    179.941757
   12549           0     -1630.279785  -1100.000000  -2441.117676    188.412247
   12550           0     -1992.564209  -1100.000000  -2441.117676    194.026352
   12551           0     -2354.849121  -1100.000000  -2441.117676    195.934784
   12552           0     -2717.133301  -1099.999878  -2441.114502    195.135010
   12553           0      2717.133057  -1100.000122  -2065.554443    203.805817
   12554           0      2354.848633  -1100.000000  -2065.553955    203.333130
   12555           0      1992.564331  -1100.000000  -2065.553955    197.177338
   12556           0      1630.279785  -1100.000000  -2065.553955    185.112793
   12557           0      1267.995483  -1100.000000  -2065.553955    168.901489
   12558           0       905.711060  -1100.000000  -2065.553955    151.174088
   12559           0       543.426575  -1100.000000  -2065.553955    135.323685
   12560           0       181.142136  -1100.000000  -2065.553955    125.184975
   12561           0      -181.142288  -1100.000000  -2065.553955    123.847198
   12562           0      -543.426758  -1100.000000  -2065.553955    131.692856
   12563           0      -905.711182  -1100.000000  -2065.553955    146.082489
   12564           0     -1267.995605  -1100.000000  -2065.553955    163.169464
   12565           0     -1630.279785  -1100.000000  -2065.553955    179.443939
   12566           0     -1992.564209  -1100.000000  -2065.553955    192.218384
   12567           0     -2354.849121  -1100.000000  -2065.553955    199.745636
   12568           0     -2717.133301  -1099.999878  -2065.554199    202.335358
   12569           0      2717.133057  -1100.000122  -1689.999390    204.543686
   12570           0      2354.848633  -1100.000000  -1690.000366    201.665359
   12571           0      1992.564331  -1100.000000  -1690.000366    190.860840
   12572           0      1630.279785  -1100.000000  -1690.000366    173.448486
   12573           0      1267.995483  -1100.000000  -1690.000366    151.563507
   12574           0       905.711060  -1100.000000  -1690.000366    128.107712
   12575           0       543.426575  -1100.000000  -1690.000366    106.822250
   12576           0       181.142136  -1100.000000  -1690.000366     92.906105
   12577           0      -181.142288  -1100.000000  -1690.000366     91.685417
   12578           0      -543.426758  -1100.000000  -1690.000366    103.681244
   12579           0      -905.711182  -1100.000000  -1690.000366    123.930458
   12580           0     -1267.995605  -1100.000000  -1690.000366    146.999847
   12581           0     -1630.279785  -1100.000000  -1690.000366    168.922684
   12582           0     -1992.564209  -1100.000000  -1690.000366    186.799271
   12583           0     -2354.849121  -1100.000000  -1690.000366    198.645523
   12584           0     -2717.133301  -1099.999878  -1689.999390    203.134720
   12585           0      2717.133057  -1100.000122  -1314.445313    196.355560
   12586           0      2354.848633  -1100.000000  -1314.446899    191.505997
   12587           0      1992.564331  -1100.000000  -1314.446899    178.798203
   12588           0      1630.279785  -1100.000000  -1314.446899    160.106857
   12589           0      1267.995483  -1100.000000  -1314.446899    138.486603
   12590           0       905.711060  -1100.000000  -1314.446899    116.714699
   12591           0       543.426575  -1100.000000  -1314.446899     97.991547
   12592           0       181.142136  -1100.000000  -1314.446899     86.528297
   12593           0      -181.142288  -1100.000000  -1314.446899     86.231529
   12594           0      -543.426758  -1100.000000  -1314.446899     97.165382
   12595           0      -905.711182  -1100.000000  -1314.446899    115.470421
   12596           0     -1267.995605  -1100.000000  -1314.446899    136.894867
   12597           0     -1630.279785  -1100.000000  -1314.446899    158.238312
   12598           0     -1992.564209  -1100.000000  -1314.446899    176.717285
   12599           0     -2354.849121  -1100.000000  -1314.446899    189.559631
   12600           0     -2717.133301  -1099.999878  -1314.445435    195.515030
   12601           0      2717.133057  -1100.000122   -938.886353    173.731735
   12602           0      2354.848633  -1100.000000   -938.884338    170.354050
   12603           0      1992.564331  -1100.000000   -938.884338    161.198090
   12604           0      1630.279785  -1100.000000   -938.884338    151.307251
   12605           0      1267.995483  -1100.000000   -938.884338    142.996841
   12606           0       905.711060  -1100.000000   -938.884338    137.137665
   12607           0       543.426575  -1100.000000   -938.884338    133.839417
   12608           0       181.142136  -1100.000000   -938.884338    132.754440
   12609           0      -181.142288  -1100.000000   -938.884338    133.513855
   12610           0      -543.426758  -1100.000000   -938.884338    135.959793
   12611           0      -905.711182  -1100.000000   -938.884338    140.173309
   12612           0     -1267.995605  -1100.000000   -938.884338    146.318604
   12613           0     -1630.279785  -1100.000000   -938.884338    154.252167
   12614           0     -1992.564209  -1100.000000   -938.884338    163.227997
   12615           0     -2354.849121  -1100.000000   -938.884338    171.034103
   12616           0     -2717.133301  -1099.999878   -938.886353    173.456375
   12617           0      2717.133057  -1100.000122   -563.326294    131.901154
   12618           0      2354.848633  -1100.000000   -563.320740    136.569016
   12619           0      1992.564331  -1100.000000   -563.320740    148.586685
   12620           0      1630.279785  -1100.000000   -563.320740    166.009003
   12621           0      1267.995483  -1100.000000   -563.320740    184.598938
   12622           0       905.711060  -1100.000000   -563.320740    201.150925
   12623           0       543.426575  -1100.000000   -563.320740    213.585190
   12624           0       181.142136  -1100.000000   -563.320740    220.706390
   12625           0      -181.142288  -1100.000000   -563.320740    221.945984
   12626           0      -543.426758  -1100.000000   -563.320740    217.240402
   12627           0      -905.711182  -1100.000000   -563.320740    207.016876
   12628           0     -1267.995605  -1100.000000   -563.320740    192.269943
   12629           0     -1630.279785  -1100.000000   -563.320740    174.766983
   12630           0     -1992.564209  -1100.000000   -563.320740    157.236710
   12631           0     -2354.849121  -1100.000000   -563.320740    143.346878
   12632           0     -2717.133301  -1099.999878   -563.326294    134.773575
   12633           0      2717.133057  -1100.000122   -187.775253     64.053551
   12634           0      2354.848633  -1100.000000   -187.773239    118.689026
   12635           0      1992.564331  -1100.000000   -187.773239    177.209991
   12636           0      1630.279785  -1100.000000   -187.773239    229.628662
   12637           0      1267.995483  -1100.000000   -187.773239    273.288422
   12638           0       905.711060  -1100.000000   -187.773239    307.064575
   12639           0       543.426575  -1100.000000   -187.773239    330.340942
   12640           0       181.142136  -1100.000000   -187.773239    342.789825
   12641           0      -181.142288  -1100.000000   -187.773239    344.246033
   12642           0      -543.426758  -1100.000000   -187.773239    334.678864
   12643           0      -905.711182  -1100.000000   -187.773239    314.183105
   12644           0     -1267.995605  -1100.000000   -187.773239    283.011871
   12645           0     -1630.279785  -1100.000000   -187.773239    241.661240
   12646           0     -1992.564209  -1100.000000   -187.773239    191.103561
   12647           0     -2354.849121  -1100.000000   -187.773239    133.535461
   12648           0     -2717.133301  -1099.999878   -187.775253     76.893044
 1                      
					   MSC.Patran 21.1.348049 Fri Jul 03 23:12:17 PDT 2015 - Analysis Code: MSC.Nastran 
1 
                                             Load Case: Combined_Loads, Subcase 1 
1
                                             Result Stress Tensor,  - Layer At Z2 
1
                                                     Entity: Element Tensor
1
1
-Entity ID--El. Pos. ID---X Location----Y Location----Z Location----von Mises---
       1           0      3088.698486    186.834412  -69807.68750     33.374725
       2           0      3043.657715    557.776428  -69807.68750     21.477446
       3           0      2954.233887    920.581055  -69807.68750     33.948456
       4           0      2821.731445   1269.959839  -69807.68750     42.991249
       5           0      2648.082520   1600.820190  -69807.68750     43.057755
       6           0      2435.817871   1908.338867  -69807.68750     36.772171
       7           0      2188.030762   2188.032471  -69807.68750     26.826332
       8           0      1908.336304   2435.819824  -69807.68750     15.465816
       9           0      1600.816406   2648.084961  -69807.68750      5.213972
      10           0      1269.955322   2821.733398  -69807.68750      6.296714
      11           0       920.576538   2954.235107  -69807.68750     12.530207
      12           0       557.773071   3043.658203  -69807.68750     16.632452
      13           0       186.833054   3088.698730  -69807.68750     18.620014
      14           0      3088.698486    186.834412  -69423.07812     16.021399
      15           0      3043.657715    557.776428  -69423.07812     16.291197
      16           0      2954.233887    920.581055  -69423.07812     35.731312
      17           0      2821.731445   1269.959839  -69423.07812     43.298965
      18           0      2648.082520   1600.820190  -69423.07812     41.438427
      19           0      2435.817871   1908.338867  -69423.07812     33.862991
      20           0      2188.030762   2188.032471  -69423.07812     23.451500
      21           0      1908.336304   2435.819824  -69423.07812     12.687648
      22           0      1600.816406   2648.084961  -69423.07812      5.515331
      23           0      1269.955322   2821.733398  -69423.07812      8.653841
      24           0       920.576538   2954.235107  -69423.07812     13.335309
      25           0       557.773071   3043.658203  -69423.07812     16.256187
      26           0       186.833054   3088.698730  -69423.07812     17.612682
      27           0      3088.698486    186.834412  -69038.46093     13.885342
      28           0      3043.657715    557.776428  -69038.46093     20.605968
      29           0      2954.233887    920.581055  -69038.46093     37.739391
      30           0      2821.731445   1269.959839  -69038.46093     43.286465
      31           0      2648.082520   1600.820190  -69038.46093     40.018871
      32           0      2435.817871   1908.338867  -69038.46093     31.693977
      33           0      2188.030762   2188.032471  -69038.46093     21.327576
      34           0      1908.336304   2435.819824  -69038.46093     11.751161
      35           0      1600.816406   2648.084961  -69038.46093      7.638712
      36           0      1269.955322   2821.733398  -69038.46093     10.634117
      37           0       920.576538   2954.235107  -69038.46093     13.974317
      38           0       557.773071   3043.658203  -69038.46093     15.866649
      39           0       186.833054   3088.698730  -69038.46093     16.664968
      40           0      3088.698486    186.834412  -68653.84375     29.296997
      41           0      3043.657715    557.776428  -68653.84375     31.588696
      42           0      2954.233887    920.581055  -68653.84375     40.727142
      43           0      2821.731445   1269.959839  -68653.84375     42.865387
      44           0      2648.082520   1600.820190  -68653.84375     38.260754
      45           0      2435.817871   1908.338867  -68653.84375     29.772066
      46           0      2188.030762   2188.032471  -68653.84375     20.295153
      47           0      1908.336304   2435.819824  -68653.84375     12.894876
      48           0      1600.816406   2648.084961  -68653.84375     10.792970
      49           0      1269.955322   2821.733398  -68653.84375     12.559012
      50           0       920.576538   2954.235107  -68653.84375     14.256001
      51           0       557.773071   3043.658203  -68653.84375     14.928690
      52           0       186.833054   3088.698730  -68653.84375     15.068522
      53           0      3088.698486    186.834412  -68269.23437     45.821114
      54           0      3043.657715    557.776428  -68269.23437     43.482525
      55           0      2954.233887    920.581055  -68269.23437     44.632633
      56           0      2821.731445   1269.959839  -68269.23437     42.834442
      57           0      2648.082520   1600.820190  -68269.23437     36.993687
      58           0      2435.817871   1908.338867  -68269.23437     28.797762
      59           0      2188.030762   2188.032471  -68269.23437     20.790535
      60           0      1908.336304   2435.819824  -68269.23437     15.507518
      61           0      1600.816406   2648.084961  -68269.23437     14.065396
      62           0      1269.955322   2821.733398  -68269.23437     14.521310
      63           0       920.576538   2954.235107  -68269.23437     14.726377
      64           0       557.773071   3043.658203  -68269.23437     14.272546
      65           0       186.833054   3088.698730  -68269.23437     13.794775
      66           0      3088.698486    186.834412  -67884.61718     63.553612
      67           0      3043.657715    557.776428  -67884.61718     56.005215
      68           0      2954.233887    920.581055  -67884.61718     48.943024
      69           0      2821.731445   1269.959839  -67884.61718     42.646770
      70           0      2648.082520   1600.820190  -67884.61718     35.820206
      71           0      2435.817871   1908.338867  -67884.61718     28.654947
      72           0      2188.030762   2188.032471  -67884.61718     22.722536
      73           0      1908.336304   2435.819824  -67884.61718     19.124657
      74           0      1600.816406   2648.084961  -67884.61718     17.455490
      75           0      1269.955322   2821.733398  -67884.61718     16.397552
      76           0       920.576538   2954.235107  -67884.61718     15.049872
      77           0       557.773071   3043.658203  -67884.61718     13.438503
      78           0       186.833054   3088.698730  -67884.61718     12.319855
      79           0      3088.698486    186.834412  -67500.00000     80.526077
      80           0      3043.657715    557.776428  -67500.00000     68.336220
      81           0      2954.233887    920.581055  -67500.00000     53.824993
      82           0      2821.731445   1269.959839  -67500.00000     42.635059
      83           0      2648.082520   1600.820190  -67500.00000     34.899982
      84           0      2435.817871   1908.338867  -67500.00000     29.376202
      85           0      2188.030762   2188.032471  -67500.00000     25.713514
      86           0      1908.336304   2435.819824  -67500.00000     23.189501
      87           0      1600.816406   2648.084961  -67500.00000     20.865047
      88           0      1269.955322   2821.733398  -67500.00000     18.256758
      89           0       920.576538   2954.235107  -67500.00000     15.374877
      90           0       557.773071   3043.658203  -67500.00000     12.613918
      91           0       186.833054   3088.698730  -67500.00000     10.849588
      92           0      3088.698486    186.834412  -67115.39062     97.262016
      93           0      3043.657715    557.776428  -67115.39062     80.326210
      94           0      2954.233887    920.581055  -67115.39062     58.956120
      95           0      2821.731445   1269.959839  -67115.39062     42.698318
      96           0      2648.082520   1600.820190  -67115.39062     34.205883
      97           0      2435.817871   1908.338867  -67115.39062     30.866707
      98           0      2188.030762   2188.032471  -67115.39062     29.399660
      99           0      1908.336304   2435.819824  -67115.39062     27.465406
     100           0      1600.816406   2648.084961  -67115.39062     24.236599
     101           0      1269.955322   2821.733398  -67115.39062     20.061403
     102           0       920.576538   2954.235107  -67115.39062     15.659090
     103           0       557.773071   3043.658203  -67115.39062     11.766282
     104           0       186.833054   3088.698730  -67115.39062      9.352131
     105           0      3088.698486    186.834412  -66730.77343    114.089958
     106           0      3043.657715    557.776428  -66730.77343     92.330917
     107           0      2954.233887    920.581055  -66730.77343     64.426254
     108           0      2821.731445   1269.959839  -66730.77343     42.835255
     109           0      2648.082520   1600.820190  -66730.77343     33.759686
     110           0      2435.817871   1908.338867  -66730.77343     33.199032
     111           0      2188.030762   2188.032471  -66730.77343     33.788815
     112           0      1908.336304   2435.819824  -66730.77343     32.037132
     113           0      1600.816406   2648.084961  -66730.77343     27.685717
     114           0      1269.955322   2821.733398  -66730.77343     21.848442
     115           0       920.576538   2954.235107  -66730.77343     15.880665
     116           0       557.773071   3043.658203  -66730.77343     10.826526
     117           0       186.833054   3088.698730  -66730.77343      7.733913
     118           0      3088.698486    186.834412  -66346.15625    129.097824
     119           0      3043.657715    557.776428  -66346.15625    103.147835
     120           0      2954.233887    920.581055  -66346.15625     69.782822
     121           0      2821.731445   1269.959839  -66346.15625     43.203266
     122           0      2648.082520   1600.820190  -66346.15625     33.484825
     123           0      2435.817871   1908.338867  -66346.15625     35.657791
     124           0      2188.030762   2188.032471  -66346.15625     37.951855
     125           0      1908.336304   2435.819824  -66346.15625     36.230797
     126           0      1600.816406   2648.084961  -66346.15625     30.814899
     127           0      1269.955322   2821.733398  -66346.15625     23.492628
     128           0       920.576538   2954.235107  -66346.15625     16.102753
     129           0       557.773071   3043.658203  -66346.15625     10.006828
     130           0       186.833054   3088.698730  -66346.15625      6.283701
     131           0      3088.698486    186.834412  -65961.53906    147.590225
     132           0      3043.657715    557.776428  -65961.53906    115.899170
     133           0      2954.233887    920.581055  -65961.53906     75.905525
     134           0      2821.731445   1269.959839  -65961.53906     43.562721
     135           0      2648.082520   1600.820190  -65961.53906     33.615814
     136           0      2435.817871   1908.338867  -65961.53906     39.566586
     137           0      2188.030762   2188.032471  -65961.53906     43.586739
     138           0      1908.336304   2435.819824  -65961.53906     41.506599
     139           0      1600.816406   2648.084961  -65961.53906     34.604065
     140           0      1269.955322   2821.733398  -65961.53906     25.380745
     141           0       920.576538   2954.235107  -65961.53906     16.260813
     142           0       557.773071   3043.658203  -65961.53906      8.919793
     143           0       186.833054   3088.698730  -65961.53906      4.434009
     144           0      3088.698486    186.834412  -65576.92187    160.518951
     145           0      3043.657715    557.776428  -65576.92187    125.215401
     146           0      2954.233887    920.581055  -65576.92187     81.346275
     147           0      2821.731445   1269.959839  -65576.92187     44.489868
     148           0      2648.082520   1600.820190  -65576.92187     33.737183
     149           0      2435.817871   1908.338867  -65576.92187     42.175018
     150           0      2188.030762   2188.032471  -65576.92187     47.379925
     151           0      1908.336304   2435.819824  -65576.92187     45.106621
     152           0      1600.816406   2648.084961  -65576.92187     37.213993
     153           0      1269.955322   2821.733398  -65576.92187     26.697824
     154           0       920.576538   2954.235107  -65576.92187     16.358477
     155           0       557.773071   3043.658203  -65576.92187      8.175429
     156           0       186.833054   3088.698730  -65576.92187      3.234074
     157           0      3088.698486    186.834412  -65192.30468    171.734299
     158           0      3043.657715    557.776428  -65192.30468    131.743835
     159           0      2954.233887    920.581055  -65192.30468     83.704323
     160           0      2821.731445   1269.959839  -65192.30468     43.102577
     161           0      2648.082520   1600.820190  -65192.30468     33.584507
     162           0      2435.817871   1908.338867  -65192.30468     45.566185
     163           0      2188.030762   2188.032471  -65192.30468     51.740612
     164           0      1908.336304   2435.819824  -65192.30468     48.909580
     165           0      1600.816406   2648.084961  -65192.30468     39.742634
     166           0      1269.955322   2821.733398  -65192.30468     27.779774
     167           0       920.576538   2954.235107  -65192.30468     16.163282
     168           0       557.773071   3043.658203  -65192.30468      7.124484
     169           0       186.833054   3088.698730  -65192.30468      1.674723
     170           0      -186.834579   3088.698486  -69807.68750     18.730175
     171           0      -557.776672   3043.657715  -69807.68750     16.941034
     172           0      -920.581299   2954.233643  -69807.68750     12.971213
     173           0     -1269.960205   2821.731445  -69807.68750      6.693202
     174           0     -1600.820557   2648.082520  -69807.68750      4.512483
     175           0     -1908.339111   2435.817871  -69807.68750     14.800290
     176           0     -2188.032471   2188.030762  -69807.68750     26.295971
     177           0     -2435.819824   1908.336426  -69807.68750     36.417072
     178           0     -2648.084961   1600.816284  -69807.68750     42.913185
     179           0     -2821.733887   1269.954834  -69807.68750     43.129219
     180           0     -2954.235352    920.575928  -69807.68750     34.492916
     181           0     -3043.658203    557.772522  -69807.68750     22.174545
     182           0     -3088.698730    186.832916  -69807.68750     33.010944
     183           0      -186.834579   3088.698486  -69423.07812     17.743385
     184           0      -557.776672   3043.657715  -69423.07812     16.619770
     185           0      -920.581299   2954.233643  -69423.07812     13.852580
     186           0     -1269.960205   2821.731445  -69423.07812      9.168867
     187           0     -1600.820557   2648.082520  -69423.07812      5.336732
     188           0     -1908.339111   2435.817871  -69423.07812     12.066282
     189           0     -2188.032471   2188.030762  -69423.07812     22.912075
     190           0     -2435.819824   1908.336426  -69423.07812     33.482445
     191           0     -2648.084961   1600.816284  -69423.07812     41.246841
     192           0     -2821.733887   1269.954834  -69423.07812     43.346745
     193           0     -2954.235352    920.575928  -69423.07812     36.127285
     194           0     -3043.658203    557.772522  -69423.07812     17.153702
     195           0     -3088.698730    186.832916  -69423.07812     15.323003
     196           0      -186.834579   3088.698486  -69038.46093     16.811314
     197           0      -557.776672   3043.657715  -69038.46093     16.269880
     198           0      -920.581299   2954.233643  -69038.46093     14.542929
     199           0     -1269.960205   2821.731445  -69038.46093     11.224885
     200           0     -1600.820557   2648.082520  -69038.46093      7.863034
     201           0     -1908.339111   2435.817871  -69038.46093     11.365045
     202           0     -2188.032471   2188.030762  -69038.46093     20.875477
     203           0     -2435.819824   1908.336426  -69038.46093     31.341516
     204           0     -2648.084961   1600.816284  -69038.46093     39.811634
     205           0     -2821.733887   1269.954834  -69038.46093     43.260448
     206           0     -2954.235352    920.575928  -69038.46093     37.960976
     207           0     -3043.658203    557.772522  -69038.46093     21.021759
     208           0     -3088.698730    186.832916  -69038.46093     12.796247
     209           0      -186.834579   3088.698486  -68653.84375     15.234119
     210           0      -557.776672   3043.657715  -68653.84375     15.377832
     211           0      -920.581299   2954.233643  -68653.84375     14.879804
     212           0     -1269.960205   2821.731445  -68653.84375     13.223288
     213           0     -1600.820557   2648.082520  -68653.84375     11.270342
     214           0     -1908.339111   2435.817871  -68653.84375     12.915693
     215           0     -2188.032471   2188.030762  -68653.84375     20.069820
     216           0     -2435.819824   1908.336426  -68653.84375     29.528149
     217           0     -2648.084961   1600.816284  -68653.84375     38.081219
     218           0     -2821.733887   1269.954834  -68653.84375     42.776794
     219           0     -2954.235352    920.575928  -68653.84375     40.729210
     220           0     -3043.658203    557.772522  -68653.84375     31.508068
     221           0     -3088.698730    186.832916  -68653.84375     28.512407
     222           0      -186.834579   3088.698486  -68269.23437     13.980543
     223           0      -557.776672   3043.657715  -68269.23437     14.767538
     224           0      -920.581299   2954.233643  -68269.23437     15.405706
     225           0     -1269.960205   2821.731445  -68269.23437     15.261639
     226           0     -1600.820557   2648.082520  -68269.23437     14.716944
     227           0     -1908.339111   2435.817871  -68269.23437     15.875099
     228           0     -2188.032471   2188.030762  -68269.23437     20.852001
     229           0     -2435.819824   1908.336426  -68269.23437     28.700848
     230           0     -2648.084961   1600.816284  -68269.23437     36.845711
     231           0     -2821.733887   1269.954834  -68269.23437     42.662727
     232           0     -2954.235352    920.575928  -68269.23437     44.398903
     233           0     -3043.658203    557.772522  -68269.23437     43.077717
     234           0     -3088.698730    186.832916  -68269.23437     45.081421
     235           0      -186.834579   3088.698486  -67884.61718     12.528854
     236           0      -557.776672   3043.657715  -67884.61718     13.982339
     237           0      -920.581299   2954.233643  -67884.61718     15.784835
     238           0     -1269.960205   2821.731445  -67884.61718     17.211710
     239           0     -1600.820557   2648.082520  -67884.61718     18.245171
     240           0     -1908.339111   2435.817871  -67884.61718     19.761299
     241           0     -2188.032471   2188.030762  -67884.61718     23.097214
     242           0     -2435.819824   1908.336426  -67884.61718     28.766493
     243           0     -2648.084961   1600.816284  -67884.61718     35.736961
     244           0     -2821.733887   1269.954834  -67884.61718     42.397842
     245           0     -2954.235352    920.575928  -67884.61718     48.478306
     246           0     -3043.658203    557.772522  -67884.61718     55.334766
     247           0     -3088.698730    186.832916  -67884.61718     62.763844
     248           0      -186.834579   3088.698486  -67500.00000     11.085526
     249           0      -557.776672   3043.657715  -67500.00000     13.208770
     250           0      -920.581299   2954.233643  -67500.00000     16.166204
     251           0     -1269.960205   2821.731445  -67500.00000     19.145252
     252           0     -1600.820557   2648.082520  -67500.00000     21.776873
     253           0     -1908.339111   2435.817871  -67500.00000     24.035397
     254           0     -2188.032471   2188.030762  -67500.00000     26.371622
     255           0     -2435.819824   1908.336426  -67500.00000     29.726566
     256           0     -2648.084961   1600.816284  -67500.00000     34.902027
     257           0     -2821.733887   1269.954834  -67500.00000     42.296169
     258           0     -2954.235352    920.575928  -67500.00000     53.141689
     259           0     -3043.658203    557.772522  -67500.00000     67.442062
     260           0     -3088.698730    186.832916  -67500.00000     79.647079
     261           0      -186.834579   3088.698486  -67115.39062      9.619935
     262           0      -557.776672   3043.657715  -67115.39062     12.414643
     263           0      -920.581299   2954.233643  -67115.39062     16.506136
     264           0     -1269.960205   2821.731445  -67115.39062     21.023314
     265           0     -1600.820557   2648.082520  -67115.39062     25.259579
     266           0     -1908.339111   2435.817871  -67115.39062     28.483175
     267           0     -2188.032471   2188.030762  -67115.39062     30.298883
     268           0     -2435.819824   1908.336426  -67115.39062     31.465405
     269           0     -2648.084961   1600.816284  -67115.39062     34.313278
     270           0     -2821.733887   1269.954834  -67115.39062     42.262146
     271           0     -2954.235352    920.575928  -67115.39062     58.077724
     272           0     -3043.658203    557.772522  -67115.39062     79.233467
     273           0     -3088.698730    186.832916  -67115.39062     96.252655
     274           0      -186.834579   3088.698486  -66730.77343      8.044658
     275           0      -557.776672   3043.657715  -66730.77343     11.533580
     276           0      -920.581299   2954.233643  -66730.77343     16.786020
     277           0     -1269.960205   2821.731445  -66730.77343     22.885078
     278           0     -1600.820557   2648.082520  -66730.77343     28.816576
     279           0     -1908.339111   2435.817871  -66730.77343     33.209248
     280           0     -2188.032471   2188.030762  -66730.77343     34.902931
     281           0     -2435.819824   1908.336426  -66730.77343     34.051785
     282           0     -2648.084961   1600.816284  -66730.77343     34.007538
     283           0     -2821.733887   1269.954834  -66730.77343     42.288712
     284           0     -2954.235352    920.575928  -66730.77343     63.368900
     285           0     -3043.658203    557.772522  -66730.77343     91.067085
     286           0     -3088.698730    186.832916  -66730.77343    112.930557
     287           0      -186.834579   3088.698486  -66346.15625      6.645738
     288           0      -557.776672   3043.657715  -66346.15625     10.771456
     289           0      -920.581299   2954.233643  -66346.15625     17.061897
     290           0     -1269.960205   2821.731445  -66346.15625     24.600491
     291           0     -1600.820557   2648.082520  -66346.15625     32.043446
     292           0     -1908.339111   2435.817871  -66346.15625     37.535278
     293           0     -2188.032471   2188.030762  -66346.15625     39.240189
     294           0     -2435.819824   1908.336426  -66346.15625     36.729092
     295           0     -2648.084961   1600.816284  -66346.15625     33.865437
     296           0     -2821.733887   1269.954834  -66346.15625     42.531399
     297           0     -2954.235352    920.575928  -66346.15625     68.564568
     298           0     -3043.658203    557.772522  -66346.15625    101.748627
     299           0     -3088.698730    186.832916  -66346.15625    127.767113
     300           0      -186.834579   3088.698486  -65961.53906      4.894097
     301           0      -557.776672   3043.657715  -65961.53906      9.755492
     302           0      -920.581299   2954.233643  -65961.53906     17.280636
     303           0     -1269.960205   2821.731445  -65961.53906     26.564604
     304           0     -1600.820557   2648.082520  -65961.53906     35.936646
     305           0     -1908.339111   2435.817871  -65961.53906     42.948116
     306           0     -2188.032471   2188.030762  -65961.53906     45.055870
     307           0     -2435.819824   1908.336426  -65961.53906     40.877522
     308           0     -2648.084961   1600.816284  -65961.53906     34.203251
     309           0     -2821.733887   1269.954834  -65961.53906     42.768425
     310           0     -2954.235352    920.575928  -65961.53906     74.506645
     311           0     -3043.658203    557.772522  -65961.53906    114.395332
     312           0     -3088.698730    186.832916  -65961.53906    146.113312
     313           0      -186.834579   3088.698486  -65576.92187      3.802084
     314           0      -557.776672   3043.657715  -65576.92187      9.079314
     315           0      -920.581299   2954.233643  -65576.92187     17.444881
     316           0     -1269.960205   2821.731445  -65576.92187     27.969297
     317           0     -1600.820557   2648.082520  -65576.92187     38.659607
     318           0     -1908.339111   2435.817871  -65576.92187     46.686241
     319           0     -2188.032471   2188.030762  -65576.92187     49.014725
     320           0     -2435.819824   1908.336426  -65576.92187     43.684368
     321           0     -2648.084961   1600.816284  -65576.92187     34.468060
     322           0     -2821.733887   1269.954834  -65576.92187     43.535515
     323           0     -2954.235352    920.575928  -65576.92187     79.761818
     324           0     -3043.658203    557.772522  -65576.92187    123.548988
     325           0     -3088.698730    186.832916  -65576.92187    158.904236
     326           0      -186.834579   3088.698486  -65192.30468      2.481687
     327           0      -557.776672   3043.657715  -65192.30468      8.045730
     328           0      -920.581299   2954.233643  -65192.30468     17.215773
     329           0     -1269.960205   2821.731445  -65192.30468     28.999094
     330           0     -1600.820557   2648.082520  -65192.30468     41.127800
     331           0     -1908.339111   2435.817871  -65192.30468     50.432175
     332           0     -2188.032471   2188.030762  -65192.30468     53.331181
     333           0     -2435.819824   1908.336426  -65192.30468     47.087204
     334           0     -2648.084961   1600.816284  -65192.30468     34.462337
     335           0     -2821.733887   1269.954834  -65192.30468     42.186378
     336           0     -2954.235352    920.575928  -65192.30468     82.189400
     337           0     -3043.658203    557.772522  -65192.30468    130.187683
     338           0     -3088.698730    186.832916  -65192.30468    170.277939
     339           0       186.794785  -3088.703125  -69807.68750     26.373123
     340           0       557.658447  -3043.681641  -69807.68750     31.052954
     341           0       920.394897  -2954.293945  -69807.68750     36.180241
     342           0      1269.714600  -2821.844482  -69807.68750     37.621113
     343           0      1600.527100  -2648.262207  -69807.68750     32.480965
     344           0      1908.010010  -2436.078613  -69807.68750     24.395548
     345           0      2187.680664  -2188.385986  -69807.68750     32.454433
     346           0      2435.463867  -1908.794678  -69807.68750     47.371174
     347           0      2647.746094  -1601.381104  -69807.68750     54.261150
     348           0      2821.433838  -1270.626953  -69807.68750     60.450317
     349           0       186.794785  -3088.703125  -69423.07812     18.531027
     350           0       557.658447  -3043.681641  -69423.07812     26.225449
     351           0       920.394897  -2954.293945  -69423.07812     34.045616
     352           0      1269.714600  -2821.844482  -69423.07812     37.566910
     353           0      1600.527100  -2648.262207  -69423.07812     33.413399
     354           0      1908.010010  -2436.078613  -69423.07812     19.616278
     355           0      2187.680664  -2188.385986  -69423.07812     14.881028
     356           0      2435.463867  -1908.794678  -69423.07812     36.054569
     357           0      2647.746094  -1601.381104  -69423.07812     50.714710
     358           0      2821.433838  -1270.626953  -69423.07812     62.209190
     359           0       186.794785  -3088.703125  -69038.46093     11.682185
     360           0       557.658447  -3043.681641  -69038.46093     22.577473
     361           0       920.394897  -2954.293945  -69038.46093     32.286591
     362           0      1269.714600  -2821.844482  -69038.46093     37.189083
     363           0      1600.527100  -2648.262207  -69038.46093     34.255634
     364           0      1908.010010  -2436.078613  -69038.46093     20.329372
     365           0      2187.680664  -2188.385986  -69038.46093      4.674897
     366           0      2435.463867  -1908.794678  -69038.46093     31.156025
     367           0      2647.746094  -1601.381104  -69038.46093     48.919590
     368           0      2821.433838  -1270.626953  -69038.46093     64.331734
     369           0       186.794785  -3088.703125  -68653.84375      7.214015
     370           0       557.658447  -3043.681641  -68653.84375     20.307833
     371           0       920.394897  -2954.293945  -68653.84375     30.750824
     372           0      1269.714600  -2821.844482  -68653.84375     36.563667
     373           0      1600.527100  -2648.262207  -68653.84375     35.599403
     374           0      1908.010010  -2436.078613  -68653.84375     26.459600
     375           0      2187.680664  -2188.385986  -68653.84375     18.621471
     376           0      2435.463867  -1908.794678  -68653.84375     33.845825
     377           0      2647.746094  -1601.381104  -68653.84375     49.859119
     378           0      2821.433838  -1270.626953  -68653.84375     70.074394
     379           0       186.794785  -3088.703125  -68269.23437     10.686360
     380           0       557.658447  -3043.681641  -68269.23437     20.560888
     381           0       920.394897  -2954.293945  -68269.23437     30.041742
     382           0      1269.714600  -2821.844482  -68269.23437     36.161594
     383           0      1600.527100  -2648.262207  -68269.23437     37.532513
     384           0      1908.010010  -2436.078613  -68269.23437     34.701725
     385           0      2187.680664  -2188.385986  -68269.23437     33.754642
     386           0      2435.463867  -1908.794678  -68269.23437     42.467361
     387           0      2647.746094  -1601.381104  -68269.23437     53.382999
     388           0      2821.433838  -1270.626953  -68269.23437     75.610405
     389           0       186.794785  -3088.703125  -67884.61718     17.875984
     390           0       557.658447  -3043.681641  -67884.61718     23.112555
     391           0       920.394897  -2954.293945  -67884.61718     29.963100
     392           0      1269.714600  -2821.844482  -67884.61718     35.683170
     393           0      1600.527100  -2648.262207  -67884.61718     39.755833
     394           0      1908.010010  -2436.078613  -67884.61718     44.010372
     395           0      2187.680664  -2188.385986  -67884.61718     49.536205
     396           0      2435.463867  -1908.794678  -67884.61718     55.083084
     397           0      2647.746094  -1601.381104  -67884.61718     59.670902
     398           0      2821.433838  -1270.626953  -67884.61718     80.906898
     399           0       186.794785  -3088.703125  -67500.00000     25.756683
     400           0       557.658447  -3043.681641  -67500.00000     27.282234
     401           0       920.394897  -2954.293945  -67500.00000     30.551268
     402           0      1269.714600  -2821.844482  -67500.00000     35.288971
     403           0      1600.527100  -2648.262207  -67500.00000     42.475388
     404           0      1908.010010  -2436.078613  -67500.00000     53.506725
     405           0      2187.680664  -2188.385986  -67500.00000     64.457626
     406           0      2435.463867  -1908.794678  -67500.00000     69.281212
     407           0      2647.746094  -1601.381104  -67500.00000     68.815094
     408           0      2821.433838  -1270.626953  -67500.00000     85.060081
     409           0       186.794785  -3088.703125  -67115.39062     33.772217
     410           0       557.658447  -3043.681641  -67115.39062     32.384136
     411           0       920.394897  -2954.293945  -67115.39062     31.703600
     412           0      1269.714600  -2821.844482  -67115.39062     34.926319
     413           0      1600.527100  -2648.262207  -67115.39062     45.505447
     414           0      1908.010010  -2436.078613  -67115.39062     62.891445
     415           0      2187.680664  -2188.385986  -67115.39062     78.979439
     416           0      2435.463867  -1908.794678  -67115.39062     84.423241
     417           0      2647.746094  -1601.381104  -67115.39062     80.030075
     418           0      2821.433838  -1270.626953  -67115.39062     88.176239
     419           0       186.794785  -3088.703125  -66730.77343     42.152550
     420           0       557.658447  -3043.681641  -66730.77343     38.296677
     421           0       920.394897  -2954.293945  -66730.77343     33.470779
     422           0      1269.714600  -2821.844482  -66730.77343     34.596687
     423           0      1600.527100  -2648.262207  -66730.77343     48.930706
     424           0      1908.010010  -2436.078613  -66730.77343     72.402374
     425           0      2187.680664  -2188.385986  -66730.77343     93.405609
     426           0      2435.463867  -1908.794678  -66730.77343    101.277031
     427           0      2647.746094  -1601.381104  -66730.77343     94.442856
     428           0      2821.433838  -1270.626953  -66730.77343     91.165466
     429           0       186.794785  -3088.703125  -66346.15625     49.777031
     430           0       557.658447  -3043.681641  -66346.15625     43.918217
     431           0       920.394897  -2954.293945  -66346.15625     35.355888
     432           0      1269.714600  -2821.844482  -66346.15625     34.349903
     433           0      1600.527100  -2648.262207  -66346.15625     52.423862
     434           0      1908.010010  -2436.078613  -66346.15625     81.102829
     435           0      2187.680664  -2188.385986  -66346.15625    106.158470
     436           0      2435.463867  -1908.794678  -66346.15625    116.372536
     437           0      2647.746094  -1601.381104  -66346.15625    108.472343
     438           0      2821.433838  -1270.626953  -66346.15625     94.052979
     439           0       186.794785  -3088.703125  -65961.53906     59.141281
     440           0       557.658447  -3043.681641  -65961.53906     51.149452
     441           0       920.394897  -2954.293945  -65961.53906     38.226501
     442           0      1269.714600  -2821.844482  -65961.53906     34.143211
     443           0      1600.527100  -2648.262207  -65961.53906     56.487686
     444           0      1908.010010  -2436.078613  -65961.53906     91.446335
     445           0      2187.680664  -2188.385986  -65961.53906    121.815544
     446           0      2435.463867  -1908.794678  -65961.53906    136.588593
     447           0      2647.746094  -1601.381104  -65961.53906    127.900230
     448           0      2821.433838  -1270.626953  -65961.53906     98.966179
     449           0       186.794785  -3088.703125  -65576.92187     65.786156
     450           0       557.658447  -3043.681641  -65576.92187     56.307793
     451           0       920.394897  -2954.293945  -65576.92187     40.359711
     452           0      1269.714600  -2821.844482  -65576.92187     34.292702
     453           0      1600.527100  -2648.262207  -65576.92187     60.344814
     454           0      1908.010010  -2436.078613  -65576.92187     99.074928
     455           0      2187.680664  -2188.385986  -65576.92187    132.929031
     456           0      2435.463867  -1908.794678  -65576.92187    149.768692
     457           0      2647.746094  -1601.381104  -65576.92187    141.710190
     458           0      2821.433838  -1270.626953  -65576.92187    103.788284
     459           0       186.794785  -3088.703125  -65192.30468     72.520874
     460           0       557.658447  -3043.681641  -65192.30468     61.676048
     461           0       920.394897  -2954.293945  -65192.30468     42.477264
     462           0      1269.714600  -2821.844482  -65192.30468     32.956825
     463           0      1600.527100  -2648.262207  -65192.30468     61.770832
     464           0      1908.010010  -2436.078613  -65192.30468    104.328644
     465           0      2187.680664  -2188.385986  -65192.30468    142.419128
     466           0      2435.463867  -1908.794678  -65192.30468    164.157257
     467           0      2647.746094  -1601.381104  -65192.30468    154.604858
     468           0      2821.433838  -1270.626953  -65192.30468    103.629173
     469           0      2954.035645   -921.190186  -69807.68750     65.057014
     470           0      3043.581055   -558.149719  -69807.68750     60.864582
     471           0      3088.683105   -186.959671  -69807.68750     51.841522
     472           0      2954.035645   -921.190186  -69423.07812     69.960068
     473           0      3043.581055   -558.149719  -69423.07812     59.523037
     474           0      3088.683105   -186.959671  -69423.07812     43.259644
     475           0      2954.035645   -921.190186  -69038.46093     73.479652
     476           0      3043.581055   -558.149719  -69038.46093     59.197746
     477           0      3088.683105   -186.959671  -69038.46093     40.941586
     478           0      2954.035645   -921.190186  -68653.84375     79.863846
     479           0      3043.581055   -558.149719  -68653.84375     61.517017
     480           0      3088.683105   -186.959671  -68653.84375     45.940128
     481           0      2954.035645   -921.190186  -68269.23437     85.892639
     482           0      3043.581055   -558.149719  -68269.23437     66.140266
     483           0      3088.683105   -186.959671  -68269.23437     55.532959
     484           0      2954.035645   -921.190186  -67884.61718     91.764862
     485           0      3043.581055   -558.149719  -67884.61718     73.221794
     486           0      3088.683105   -186.959671  -67884.61718     68.980957
     487           0      2954.035645   -921.190186  -67500.00000     96.682884
     488           0      3043.581055   -558.149719  -67500.00000     82.963707
     489           0      3088.683105   -186.959671  -67500.00000     84.215523
     490           0      2954.035645   -921.190186  -67115.39062    100.705978
     491           0      3043.581055   -558.149719  -67115.39062     94.715897
     492           0      3088.683105   -186.959671  -67115.39062    100.692131
     493           0      2954.035645   -921.190186  -66730.77343    104.660774
     494           0      3043.581055   -558.149719  -66730.77343    109.650131
     495           0      3088.683105   -186.959671  -66730.77343    119.263870
     496           0      2954.035645   -921.190186  -66346.15625    108.375900
     497           0      3043.581055   -558.149719  -66346.15625    124.389145
     498           0      3088.683105   -186.959671  -66346.15625    136.175400
     499           0      2954.035645   -921.190186  -65961.53906    113.949677
     500           0      3043.581055   -558.149719  -65961.53125    144.824356
     501           0      3088.683105   -186.959671  -65961.53906    159.046890
     502           0      2954.035645   -921.190186  -65576.92187    119.647049
     503           0      3043.581055   -558.149719  -65576.92187    160.046539
     504           0      3088.683105   -186.959671  -65576.92187    174.304550
     505           0      2954.035645   -921.190186  -65192.30468    121.460495
     506           0      3043.581055   -558.149719  -65192.30468    175.637115
     507           0      3088.683105   -186.959671  -65192.30468    191.136520
     508           0     -3088.683105   -186.960480  -69807.68750     51.042233
     509           0     -3043.581055   -558.150757  -69807.68750     59.929325
     510           0     -2954.035645   -921.190308  -69807.68750     64.355255
     511           0     -3088.683105   -186.960480  -69423.07812     42.207024
     512           0     -3043.581055   -558.150757  -69423.07812     58.477688
     513           0     -2954.035645   -921.190308  -69423.07812     69.101669
     514           0     -3088.683105   -186.960480  -69038.46093     39.783031
     515           0     -3043.581055   -558.150757  -69038.46093     58.090279
     516           0     -2954.035645   -921.190308  -69038.46093     72.576019
     517           0     -3088.683105   -186.960480  -68653.84375     44.849415
     518           0     -3043.581055   -558.150757  -68653.84375     60.391254
     519           0     -2954.035645   -921.190308  -68653.84375     78.969101
     520           0     -3088.683105   -186.960480  -68269.23437     54.575233
     521           0     -3043.581055   -558.150757  -68269.23437     65.040115
     522           0     -2954.035645   -921.190308  -68269.23437     85.033714
     523           0     -3088.683105   -186.960480  -67884.61718     68.140839
     524           0     -3043.581055   -558.150757  -67884.61718     72.190384
     525           0     -2954.035645   -921.190308  -67884.61718     90.944473
     526           0     -3088.683105   -186.960480  -67500.00000     83.433891
     527           0     -3043.581055   -558.150757  -67500.00000     82.032516
     528           0     -2954.035645   -921.190308  -67500.00000     95.903725
     529           0     -3088.683105   -186.960480  -67115.39062     99.918755
     530           0     -3043.581055   -558.150757  -67115.39062     93.895409
     531           0     -2954.035645   -921.190308  -67115.39062     99.973381
     532           0     -3088.683105   -186.960480  -66730.77343    118.436913
     533           0     -3043.581055   -558.150757  -66730.77343    108.950310
     534           0     -2954.035645   -921.190308  -66730.77343    103.988998
     535           0     -3088.683105   -186.960480  -66346.15625    135.232498
     536           0     -3043.581055   -558.150757  -66346.15625    123.749619
     537           0     -2954.035645   -921.190308  -66346.15625    107.784584
     538           0     -3088.683105   -186.960480  -65961.53906    157.902649
     539           0     -3043.581055   -558.150757  -65961.53906    144.209656
     540           0     -2954.035645   -921.190308  -65961.53906    113.450798
     541           0     -3088.683105   -186.960480  -65576.92187    172.867432
     542           0     -3043.581055   -558.150757  -65576.92187    159.096313
     543           0     -2954.035645   -921.190308  -65576.92187    118.923813
     544           0     -3088.683105   -186.960480  -65192.30468    189.679535
     545           0     -3043.581055   -558.150757  -65192.30468    174.007706
     546           0     -2954.035645   -921.190308  -65192.30468    119.739189
     547           0     -2821.431885  -1270.630615  -69807.68750     60.091034
     548           0     -2647.743164  -1601.385864  -69807.68750     54.196362
     549           0     -2435.459229  -1908.800293  -69807.68750     47.596218
     550           0     -2187.676270  -2188.390625  -69807.68750     32.892715
     551           0     -1908.004395  -2436.082764  -69807.68750     24.585333
     552           0     -1600.520996  -2648.266113  -69807.68750     32.525932
     553           0     -1269.708374  -2821.846924  -69807.68750     37.743698
     554           0      -920.387939  -2954.296387  -69807.68750     36.340088
     555           0      -557.652283  -3043.682617  -69807.68750     31.188623
     556           0      -186.789612  -3088.704102  -69807.68750     26.430593
     557           0     -2821.431885  -1270.630615  -69423.07812     62.021927
     558           0     -2647.743164  -1601.385864  -69423.07812     50.770294
     559           0     -2435.459229  -1908.800293  -69423.07812     36.341988
     560           0     -2187.676270  -2188.390625  -69423.07812     15.283895
     561           0     -1908.004395  -2436.082764  -69423.07812     19.549862
     562           0     -1600.520996  -2648.266113  -69423.07812     33.434601
     563           0     -1269.708374  -2821.846924  -69423.07812     37.709637
     564           0      -920.387939  -2954.296387  -69423.07812     34.233227
     565           0      -557.652283  -3043.682617  -69423.07812     26.406179
     566           0      -186.789612  -3088.704102  -69423.07812     18.626732
     567           0     -2821.431885  -1270.630615  -69038.46093     64.225410
     568           0     -2647.743164  -1601.385864  -69038.46093     49.021194
     569           0     -2435.459229  -1908.800293  -69038.46093     31.402941
     570           0     -2187.676270  -2188.390625  -69038.46093      4.911411
     571           0     -1908.004395  -2436.082764  -69038.46093     20.130255
     572           0     -1600.520996  -2648.266113  -69038.46093     34.274845
     573           0     -1269.708374  -2821.846924  -69038.46093     37.346851
     574           0      -920.387939  -2954.296387  -69038.46093     32.497116
     575           0      -557.652283  -3043.682617  -69038.46093     22.801893
     576           0      -186.789612  -3088.704102  -69038.46093     11.844760
     577           0     -2821.431885  -1270.630615  -68653.84375     69.981033
     578           0     -2647.743164  -1601.385864  -68653.84375     49.959343
     579           0     -2435.459229  -1908.800293  -68653.84375     33.944630
     580           0     -2187.676270  -2188.390625  -68653.84375     18.485960
     581           0     -1908.004395  -2436.082764  -68653.84375     26.296160
     582           0     -1600.520996  -2648.266113  -68653.84375     35.648529
     583           0     -1269.708374  -2821.846924  -68653.84375     36.736164
     584           0      -920.387939  -2954.296387  -68653.84375     30.976681
     585           0      -557.652283  -3043.682617  -68653.84375     20.562326
     586           0      -186.789612  -3088.704102  -68653.84375      7.477900
     587           0     -2821.431885  -1270.630615  -68269.23437     75.502174
     588           0     -2647.743164  -1601.385864  -68269.23437     53.439690
     589           0     -2435.459229  -1908.800293  -68269.23437     42.432785
     590           0     -2187.676270  -2188.390625  -68269.23437     33.636642
     591           0     -1908.004395  -2436.082764  -68269.23437     34.637821
     592           0     -1600.520996  -2648.266113  -68269.23437     37.625374
     593           0     -1269.708374  -2821.846924  -68269.23437     36.344917
     594           0      -920.387939  -2954.296387  -68269.23437     30.271845
     595           0      -557.652283  -3043.682617  -68269.23437     20.807964
     596           0      -186.789612  -3088.704102  -68269.23437     10.859300
     597           0     -2821.431885  -1270.630615  -67884.61718     80.764938
     598           0     -2647.743164  -1601.385864  -67884.61718     59.650379
     599           0     -2435.459229  -1908.800293  -67884.61718     54.960190
     600           0     -2187.676270  -2188.390625  -67884.61718     49.486012
     601           0     -1908.004395  -2436.082764  -67884.61718     44.070972
     602           0     -1600.520996  -2648.266113  -67884.61718     39.905006
     603           0     -1269.708374  -2821.846924  -67884.61718     35.872395
     604           0      -920.387939  -2954.296387  -67884.61718     30.185112
     605           0      -557.652283  -3043.682617  -67884.61718     23.319061
     606           0      -186.789612  -3088.704102  -67884.61718     17.970783
     607           0     -2821.431885  -1270.630615  -67500.00000     84.867607
     608           0     -2647.743164  -1601.385864  -67500.00000     68.698845
     609           0     -2435.459229  -1908.800293  -67500.00000     69.124504
     610           0     -2187.676270  -2188.390625  -67500.00000     64.486214
     611           0     -1908.004395  -2436.082764  -67500.00000     53.686756
     612           0     -1600.520996  -2648.266113  -67500.00000     42.680794
     613           0     -1269.708374  -2821.846924  -67500.00000     35.482208
     614           0      -920.387939  -2954.296387  -67500.00000     30.753057
     615           0      -557.652283  -3043.682617  -67500.00000     27.438637
     616           0      -186.789612  -3088.704102  -67500.00000     25.813349
     617           0     -2821.431885  -1270.630615  -67115.39062     87.922676
     618           0     -2647.743164  -1601.385864  -67115.39062     79.816910
     619           0     -2435.459229  -1908.800293  -67115.39062     84.273796
     620           0     -2187.676270  -2188.390625  -67115.39062     79.118675
     621           0     -1908.004395  -2436.082764  -67115.39062     63.183022
     622           0     -1600.520996  -2648.266113  -67115.39062     45.759449
     623           0     -1269.708374  -2821.846924  -67115.39062     35.122166
     624           0      -920.387939  -2954.296387  -67115.39062     31.876015
     625           0      -557.652283  -3043.682617  -67115.39062     32.493092
     626           0      -186.789612  -3088.704102  -67115.39062     33.806252
     627           0     -2821.431885  -1270.630615  -66730.77343     90.819283
     628           0     -2647.743164  -1601.385864  -66730.77343     94.135330
     629           0     -2435.459229  -1908.800293  -66730.77343    101.190140
     630           0     -2187.676270  -2188.390625  -66730.77343     93.667412
     631           0     -1908.004395  -2436.082764  -66730.77343     72.784836
     632           0     -1600.520996  -2648.266113  -66730.77343     49.225296
     633           0     -1269.708374  -2821.846924  -66730.77343     34.798920
     634           0      -920.387939  -2954.296387  -66730.77343     33.603642
     635           0      -557.652283  -3043.682617  -66730.77343     38.364437
     636           0      -186.789612  -3088.704102  -66730.77343     42.170277
     637           0     -2821.431885  -1270.630615  -66346.15625     93.612473
     638           0     -2647.743164  -1601.385864  -66346.15625    108.126488
     639           0     -2435.459229  -1908.800293  -66346.15625    116.403320
     640           0     -2187.676270  -2188.390625  -66346.15625    106.565849
     641           0     -1908.004395  -2436.082764  -66346.15625     81.546608
     642           0     -1600.520996  -2648.266113  -66346.15625     52.756916
     643           0     -1269.708374  -2821.846924  -66346.15625     34.563236
     644           0      -920.387939  -2954.296387  -66346.15625     35.449001
     645           0      -557.652283  -3043.682617  -66346.15625     43.949741
     646           0      -186.789612  -3088.704102  -66346.15625     49.784473
     647           0     -2821.431885  -1270.630615  -65961.53906     98.389366
     648           0     -2647.743164  -1601.385864  -65961.53906    127.568245
     649           0     -2435.459229  -1908.800293  -65961.53906    136.828354
     650           0     -2187.676270  -2188.390625  -65961.53906    122.333115
     651           0     -1908.004395  -2436.082764  -65961.53906     91.911743
     652           0     -1600.520996  -2648.266113  -65961.53125     56.873714
     653           0     -1269.708374  -2821.846924  -65961.53125     34.361828
     654           0      -920.387939  -2954.296387  -65961.53125     38.269520
     655           0      -557.652283  -3043.682617  -65961.53125     51.149525
     656           0      -186.789612  -3088.704102  -65961.53906     59.137783
     657           0     -2821.431885  -1270.630615  -65576.92187    103.421593
     658           0     -2647.743164  -1601.385864  -65576.92187    141.734070
     659           0     -2435.459229  -1908.800293  -65576.92187    150.298874
     660           0     -2187.676270  -2188.390625  -65576.92187    133.539948
     661           0     -1908.004395  -2436.082764  -65576.92187     99.618668
     662           0     -1600.520996  -2648.266113  -65576.92187     60.800823
     663           0     -1269.708374  -2821.846924  -65576.92187     34.533958
     664           0      -920.387939  -2954.296387  -65576.92187     40.354321
     665           0      -557.652283  -3043.682617  -65576.92187     56.274853
     666           0      -186.789612  -3088.704102  -65576.92187     65.772667
     667           0     -2821.431885  -1270.630615  -65192.30468    104.163872
     668           0     -2647.743164  -1601.385864  -65192.30468    155.426834
     669           0     -2435.459229  -1908.800293  -65192.30468    164.779297
     670           0     -2187.676270  -2188.390625  -65192.30468    142.907959
     671           0     -1908.004395  -2436.082764  -65192.30468    104.795380
     672           0     -1600.520996  -2648.266113  -65192.30468     62.177174
     673           0     -1269.708374  -2821.846924  -65192.30468     33.177971
     674           0      -920.387939  -2954.296387  -65192.30468     42.464722
     675           0      -557.652283  -3043.682617  -65192.30468     61.648441
     676           0      -186.789612  -3088.704102  -65192.30468     72.512901
     677           0      3088.698242    186.835236  -64812.04687    175.409668
     678           0      3043.657227    557.778564  -64812.04687    139.907776
     679           0      2954.232910    920.583740  -64812.04687     97.549088
     680           0      2821.730225   1269.962524  -64812.04687     65.462151
     681           0      2648.081055   1600.822510  -64812.04687     57.800682
     682           0      2435.816406   1908.340698  -64812.04687     63.164181
     683           0      2188.029785   2188.033447  -64812.04687     64.199287
     684           0      1908.335938   2435.820068  -64812.04687     57.092888
     685           0      1600.816650   2648.084717  -64812.04687     43.964405
     686           0      1269.956299   2821.732910  -64812.04687     28.425379
     687           0       920.578003   2954.234619  -64812.04687     13.924355
     688           0       557.774414   3043.657959  -64812.04687      5.045659
     689           0       186.833771   3088.698730  -64812.04687      8.929941
     690           0      3088.698242    186.836029  -64436.14062    168.796997
     691           0      3043.656738    557.780640  -64436.14062    137.097397
     692           0      2954.231934    920.586426  -64436.14062     98.081970
     693           0      2821.729004   1269.965088  -64436.14062     67.658318
     694           0      2648.079590   1600.824951  -64436.14062     58.411518
     695           0      2435.815186   1908.342407  -64436.14062     61.205269
     696           0      2188.028809   2188.034424  -64436.14062     60.772835
     697           0      1908.335693   2435.820313  -64436.14062     52.968475
     698           0      1600.816895   2648.084473  -64436.14062     39.699505
     699           0      1269.957275   2821.732910  -64436.14062     24.346189
     700           0       920.579468   2954.234375  -64436.14062     10.160682
     701           0       557.775757   3043.657959  -64436.14062      3.541960
     702           0       186.834488   3088.698242  -64436.14062      9.926916
     703           0      3088.698242    186.835999  -64060.24218    159.766342
     704           0      3043.656738    557.780518  -64060.24218    131.814255
     705           0      2954.231934    920.586304  -64060.24218     95.873016
     706           0      2821.729004   1269.965088  -64060.24218     67.808243
     707           0      2648.079590   1600.824951  -64060.24218     58.367146
     708           0      2435.815430   1908.342407  -64060.24218     59.599976
     709           0      2188.028809   2188.034424  -64060.24218     57.850719
     710           0      1908.335693   2435.820313  -64060.24218     49.339474
     711           0      1600.816895   2648.084473  -64060.24218     35.879299
     712           0      1269.957275   2821.732910  -64060.24218     20.725855
     713           0       920.579468   2954.234375  -64060.24218      6.916967
     714           0       557.775757   3043.657959  -64060.24218      4.765696
     715           0       186.834488   3088.698242  -64060.24218     11.635125
     716           0      3088.698242    186.835999  -63684.33984    145.702667
     717           0      3043.656738    557.780457  -63684.33984    123.234589
     718           0      2954.231934    920.586243  -63684.33984     92.789368
     719           0      2821.729004   1269.965088  -63684.33984     68.285469
     720           0      2648.079590   1600.824951  -63684.33984     58.592319
     721           0      2435.815430   1908.342285  -63684.33984     57.402149
     722           0      2188.028809   2188.034424  -63684.33984     53.926323
     723           0      1908.335693   2435.820313  -63684.33984     44.769108
     724           0      1600.816895   2648.084473  -63684.33984     31.496973
     725           0      1269.957275   2821.732910  -63684.33984     17.108105
     726           0       920.579468   2954.234375  -63684.33984      5.023083
     727           0       557.775757   3043.657959  -63684.33984      7.468534
     728           0       186.834488   3088.698242  -63684.33984     13.585107
     729           0      3088.698242    186.835968  -63308.43359    135.243912
     730           0      3043.656738    557.780457  -63308.43359    116.902878
     731           0      2954.231934    920.586121  -63308.43359     90.491768
     732           0      2821.729004   1269.964966  -63308.43359     68.737236
     733           0      2648.079590   1600.824829  -63308.43359     59.086449
     734           0      2435.815430   1908.342285  -63308.43359     56.247532
     735           0      2188.028809   2188.034424  -63308.43359     51.332977
     736           0      1908.335693   2435.820313  -63308.43359     41.485420
     737           0      1600.816895   2648.084473  -63308.43359     28.268606
     738           0      1269.957153   2821.732910  -63308.43359     14.749495
     739           0       920.579346   2954.234375  -63308.43359      6.338427
     740           0       557.775635   3043.657959  -63308.43359     10.834805
     741           0       186.834412   3088.698242  -63308.43359     16.120663
     742           0      3088.698242    186.835953  -62932.53125    123.340233
     743           0      3043.656738    557.780396  -62932.53125    109.770531
     744           0      2954.232178    920.586121  -62932.53125     88.012329
     745           0      2821.729004   1269.964844  -62932.53125     69.335266
     746           0      2648.079590   1600.824829  -62932.53125     59.817707
     747           0      2435.815430   1908.342285  -62932.53125     55.333271
     748           0      2188.028809   2188.034424  -62932.53125     48.997803
     749           0      1908.335693   2435.820313  -62932.53125     38.606686
     750           0      1600.816895   2648.084473  -62932.53125     25.772921
     751           0      1269.957153   2821.732910  -62932.53125     13.926801
     752           0       920.579224   2954.234375  -62932.53125      9.650718
     753           0       557.775513   3043.657959  -62932.53125     14.256009
     754           0       186.834335   3088.698242  -62932.53125     18.734476
     755           0      3088.698242    186.835922  -62556.62500    112.132896
     756           0      3043.656738    557.780396  -62556.62500    103.026405
     757           0      2954.232178    920.586121  -62556.62500     85.702980
     758           0      2821.729492   1269.964844  -62556.62500     69.961868
     759           0      2648.079834   1600.824707  -62556.62500     60.789013
     760           0      2435.815430   1908.342285  -62556.62500     55.010170
     761           0      2188.028809   2188.034424  -62556.62500     47.465843
     762           0      1908.335693   2435.820313  -62556.62500     36.682747
     763           0      1600.816895   2648.084473  -62556.62500     24.535978
     764           0      1269.957153   2821.732910  -62556.62500     15.021385
     765           0       920.579224   2954.234375  -62556.62500     13.636151
     766           0       557.775513   3043.657959  -62556.62500     17.849314
     767           0       186.834335   3088.698242  -62556.62500     21.586689
     768           0      3088.698242    186.835907  -62180.72656    101.105652
     769           0      3043.656738    557.780334  -62180.72656     96.275803
     770           0      2954.232178    920.586060  -62180.72656     83.515717
     771           0      2821.729492   1269.964844  -62180.72656     70.709023
     772           0      2648.079834   1600.824707  -62180.72656     62.015385
     773           0      2435.815430   1908.342285  -62180.72656     55.198120
     774           0      2188.028809   2188.034424  -62180.72656     46.673424
     775           0      1908.335693   2435.820313  -62180.72656     35.768280
     776           0      1600.816895   2648.084473  -62180.72656     24.721085
     777           0      1269.957153   2821.732910  -62180.72656     17.713894
     778           0       920.579224   2954.234375  -62180.72656     17.867208
     779           0       557.775513   3043.657959  -62180.72656     21.494486
     780           0       186.834335   3088.698242  -62180.72656     24.538191
     781           0      3088.698242    186.835876  -61804.82421     90.624855
     782           0      3043.656738    557.780273  -61804.82421     89.652016
     783           0      2954.232178    920.585938  -61804.82421     81.455360
     784           0      2821.729492   1269.964722  -61804.82421     71.552841
     785           0      2648.080078   1600.824707  -61804.82421     63.478840
     786           0      2435.815430   1908.342041  -61804.82421     55.923347
     787           0      2188.029053   2188.034180  -61804.82421     46.707893
     788           0      1908.335693   2435.820313  -61804.82421     35.980499
     789           0      1600.816895   2648.084473  -61804.82421     26.329962
     790           0      1269.957153   2821.732910  -61804.82421     21.442930
     791           0       920.579224   2954.234375  -61804.82421     22.242161
     792           0       557.775513   3043.657959  -61804.82421     25.216858
     793           0       186.834335   3088.698242  -61804.82421     27.605839
     794           0      3088.698242    186.835876  -61428.91796     81.000702
     795           0      3043.656738    557.780151  -61428.91796     83.181175
     796           0      2954.232178    920.585815  -61428.91796     79.546761
     797           0      2821.729492   1269.964600  -61428.91796     72.521080
     798           0      2648.080078   1600.824463  -61428.91796     65.183853
     799           0      2435.815430   1908.342041  -61428.91796     57.168598
     800           0      2188.029053   2188.034180  -61428.91796     47.569374
     801           0      1908.335693   2435.820313  -61428.91796     37.313534
     802           0      1600.816895   2648.084473  -61428.91796     29.152760
     803           0      1269.957153   2821.732910  -61428.91796     25.785700
     804           0       920.579224   2954.234375  -61428.91796     26.708668
     805           0       557.775513   3043.657959  -61428.91796     28.995388
     806           0       186.834335   3088.698242  -61428.91796     30.761065
     807           0      3088.698242    186.835846  -61053.01171     72.545067
     808           0      3043.656738    557.780151  -61053.01171     76.952477
     809           0      2954.232178    920.585815  -61053.01171     77.797997
     810           0      2821.729492   1269.964600  -61053.01171     73.615463
     811           0      2648.080078   1600.824463  -61053.01171     67.121208
     812           0      2435.815430   1908.342041  -61053.01171     58.907722
     813           0      2188.029053   2188.034180  -61053.01171     49.222473
     814           0      1908.335693   2435.820313  -61053.01171     39.668205
     815           0      1600.816895   2648.084473  -61053.01171     32.896378
     816           0      1269.957031   2821.732910  -61053.01171     30.504871
     817           0       920.579102   2954.234375  -61053.01171     31.248022
     818           0       557.775513   3043.657959  -61053.01171     32.831806
     819           0       186.834335   3088.698242  -61053.01171     33.998615
     820           0      3088.698242    186.835831  -60677.10937     65.735085
     821           0      3043.656738    557.780090  -60677.10937     71.057419
     822           0      2954.232178    920.585693  -60677.10937     76.235641
     823           0      2821.729492   1269.964478  -60677.10937     74.843002
     824           0      2648.080078   1600.824463  -60677.10937     69.283409
     825           0      2435.815430   1908.342041  -60677.10937     61.106792
     826           0      2188.029053   2188.034180  -60677.10937     51.598263
     827           0      1908.335693   2435.820313  -60677.10937     42.887035
     828           0      1600.816895   2648.084473  -60677.10937     37.301704
     829           0      1269.957031   2821.732910  -60677.10937     35.466209
     830           0       920.579041   2954.234375  -60677.10937     35.849293
     831           0       557.775513   3043.657959  -60677.10937     36.721973
     832           0       186.834335   3088.698242  -60677.10937     37.311279
     833           0      3088.698242    186.835815  -60301.20312     60.997059
     834           0      3043.656738    557.780029  -60301.20312     65.619820
     835           0      2954.232178    920.585632  -60301.20312     74.879768
     836           0      2821.729492   1269.964355  -60301.20312     76.206680
     837           0      2648.080078   1600.824341  -60301.20312     71.660889
     838           0      2435.815430   1908.342041  -60301.20312     63.724342
     839           0      2188.029053   2188.034180  -60301.20312     54.607624
     840           0      1908.335693   2435.820313  -60301.20312     46.801651
     841           0      1600.816895   2648.084473  -60301.20312     42.173817
     842           0      1269.957031   2821.732910  -60301.20312     40.597164
     843           0       920.579041   2954.234375  -60301.20312     40.505341
     844           0       557.775391   3043.657959  -60301.20312     40.665646
     845           0       186.834259   3088.698242  -60301.20312     40.695015
     846           0      3088.698242    186.835785  -59925.29687     58.705830
     847           0      3043.656738    557.780029  -59925.29687     60.761860
     848           0      2954.232178    920.585632  -59925.29687     73.753662
     849           0      2821.729492   1269.964355  -59925.29687     77.707886
     850           0      2648.080078   1600.824341  -59925.29687     74.239769
     851           0      2435.815430   1908.342041  -59925.29687     66.716949
     852           0      2188.029053   2188.034180  -59925.29687     58.156860
     853           0      1908.335693   2435.820313  -59925.29687     51.258923
     854           0      1600.816895   2648.084473  -59925.29687     47.380192
     855           0      1269.956909   2821.732910  -59925.29687     45.851894
     856           0       920.578979   2954.234375  -59925.29687     45.212894
     857           0       557.775269   3043.657959  -59925.29687     44.661537
     858           0       186.834198   3088.698242  -59925.29687     44.147411
     859           0      3088.698242    186.835785  -59549.39843     58.952366
     860           0      3043.656738    557.780029  -59549.39843     56.623604
     861           0      2954.232422    920.585571  -59549.39843     72.869667
     862           0      2821.729736   1269.964355  -59549.39843     79.341026
     863           0      2648.080078   1600.824219  -59549.39843     77.009193
     864           0      2435.815674   1908.341919  -59549.39843     70.041000
     865           0      2188.029053   2188.034180  -59549.39843     62.156548
     866           0      1908.335693   2435.820313  -59549.39843     56.135239
     867           0      1600.816895   2648.084473  -59549.39843     52.829170
     868           0      1269.956787   2821.732910  -59549.39843     51.203289
     869           0       920.578857   2954.234375  -59549.39843     49.968307
     870           0       557.775208   3043.657959  -59549.39843     48.709873
     871           0       186.834198   3088.698242  -59549.39843     47.666824
     872           0      3088.698242    186.835754  -59173.49609     61.501080
     873           0      3043.656738    557.779907  -59173.49609     53.332710
     874           0      2954.232422    920.585449  -59173.49609     72.232567
     875           0      2821.729736   1269.964233  -59173.49609     81.106133
     876           0      2648.080078   1600.824219  -59173.49609     79.951431
     877           0      2435.815674   1908.341675  -59173.49609     73.653755
     878           0      2188.029297   2188.034180  -59173.49609     66.528152
     879           0      1908.335693   2435.820313  -59173.49609     61.333775
     880           0      1600.816895   2648.084473  -59173.49609     58.459396
     881           0      1269.956787   2821.732910  -59173.49609     56.631844
     882           0       920.578857   2954.234375  -59173.49609     54.769894
     883           0       557.775208   3043.657959  -59173.49609     52.810459
     884           0       186.834198   3088.698242  -59173.49609     51.252666
     885           0      3088.698242    186.835724  -58797.58984     65.873390
     886           0      3043.656738    557.779846  -58797.58984     50.996666
     887           0      2954.232422    920.585449  -58797.58984     71.842354
     888           0      2821.729736   1269.964111  -58797.58984     82.989845
     889           0      2648.080078   1600.824219  -58797.58984     83.049362
     890           0      2435.815918   1908.341675  -58797.58984     77.517754
     891           0      2188.029297   2188.034180  -58797.58984     71.203613
     892           0      1908.335815   2435.820313  -58797.58984     66.781570
     893           0      1600.816895   2648.084473  -58797.58984     64.227074
     894           0      1269.956787   2821.732910  -58797.58984     62.124325
     895           0       920.578857   2954.234375  -58797.58984     59.615677
     896           0       557.775208   3043.657959  -58797.58984     56.963692
     897           0       186.834198   3088.698242  -58797.58984     54.904736
     898           0      3088.698242    186.835693  -58421.68750     71.529869
     899           0      3043.656738    557.779785  -58421.68750     49.676144
     900           0      2954.232422    920.585327  -58421.68750     71.684486
     901           0      2821.729736   1269.964111  -58421.68750     84.979767
     902           0      2648.080078   1600.823975  -58421.68750     86.286354
     903           0      2435.815918   1908.341675  -58421.68750     81.594383
     904           0      2188.029297   2188.034180  -58421.68750     76.126900
     905           0      1908.335815   2435.820313  -58421.68750     72.422836
     906           0      1600.816895   2648.084473  -58421.68750     70.101341
     907           0      1269.956787   2821.732910  -58421.68750     67.670311
     908           0       920.578796   2954.234375  -58421.68750     64.504326
     909           0       557.775208   3043.657959  -58421.68750     61.170067
     910           0       186.834198   3088.698242  -58421.68750     58.623398
     911           0      3088.698242    186.835693  -58045.78125     78.000748
     912           0      3043.656738    557.779724  -58045.78125     49.364979
     913           0      2954.232422    920.585327  -58045.78125     71.742180
     914           0      2821.729736   1269.963989  -58045.78125     87.059013
     915           0      2648.080078   1600.823975  -58045.78125     89.640488
     916           0      2435.815918   1908.341675  -58045.78125     85.850929
     917           0      2188.029297   2188.034180  -58045.78125     81.250366
     918           0      1908.335815   2435.820313  -58045.78125     78.215599
     919           0      1600.816895   2648.084473  -58045.78125     76.058426
     920           0      1269.956787   2821.732910  -58045.78125     73.262283
     921           0       920.578735   2954.234375  -58045.78125     69.434319
     922           0       557.775208   3043.657959  -58045.78125     65.430344
     923           0       186.834198   3088.698242  -58045.78125     62.409443
     924           0      3088.698242    186.835663  -57669.87890     84.921623
     925           0      3043.656738    557.779724  -57669.87890     49.989635
     926           0      2954.232422    920.585144  -57669.87890     71.988472
     927           0      2821.729736   1269.963989  -57669.87890     89.209534
     928           0      2648.080322   1600.823975  -57669.87890     93.094955
     929           0      2435.815918   1908.341675  -57669.87890     90.256378
     930           0      2188.029297   2188.034180  -57669.87890     86.534294
     931           0      1908.335815   2435.820313  -57669.87890     84.126137
     932           0      1600.816895   2648.084473  -57669.87890     82.080986
     933           0      1269.956787   2821.732910  -57669.87890     78.893265
     934           0       920.578735   2954.234375  -57669.87890     74.404640
     935           0       557.775208   3043.657959  -57669.87890     69.745178
     936           0       186.834198   3088.698242  -57669.87890     66.264137
     937           0      3088.698242    186.835663  -57293.97656     92.031532
     938           0      3043.656738    557.779663  -57293.97656     51.418324
     939           0      2954.232422    920.585144  -57293.97656     72.398468
     940           0      2821.729736   1269.963867  -57293.97656     91.411964
     941           0      2648.080322   1600.823975  -57293.97656     96.627075
     942           0      2435.815918   1908.341553  -57293.97656     94.782555
     943           0      2188.029297   2188.034180  -57293.97656     91.945290
     944           0      1908.335693   2435.820313  -57293.97656     90.128387
     945           0      1600.816772   2648.084473  -57293.97656     88.154541
     946           0      1269.956787   2821.732910  -57293.97656     84.558037
     947           0       920.578735   2954.234375  -57293.97656     79.414146
     948           0       557.775146   3043.657959  -57293.97656     74.115471
     949           0       186.834137   3088.698242  -57293.97656     70.188927
     950           0      3088.698242    186.835632  -56918.07421     99.145996
     951           0      3043.656738    557.779541  -56918.07421     53.492344
     952           0      2954.232422    920.585083  -56918.07421     72.943184
     953           0      2821.729736   1269.963867  -56918.07421     93.648102
     954           0      2648.080566   1600.823853  -56918.07421    100.220535
     955           0      2435.815918   1908.341553  -56918.07421     99.402870
     956           0      2188.029297   2188.034180  -56918.07421     97.454575
     957           0      1908.335693   2435.820313  -56918.07421     96.200081
     958           0      1600.816650   2648.084473  -56918.07421     94.267555
     959           0      1269.956787   2821.732910  -56918.07421     90.251602
     960           0       920.578735   2954.234375  -56918.07421     84.461769
     961           0       557.775085   3043.657959  -56918.07421     78.542290
     962           0       186.834061   3088.698242  -56918.07421     74.185432
     963           0      3088.698242    186.835602  -56542.16796    106.136673
     964           0      3043.656738    557.779480  -56542.16796     56.047249
     965           0      2954.232422    920.584961  -56542.16796     73.597191
     966           0      2821.729736   1269.963867  -56542.16796     95.901016
     967           0      2648.080566   1600.823730  -56542.16796    103.853630
     968           0      2435.815918   1908.341431  -56542.16796    104.094482
     969           0      2188.029297   2188.034180  -56542.16796    103.036942
     970           0      1908.335693   2435.820313  -56542.16796    102.322983
     971           0      1600.816650   2648.084473  -56542.16796    100.409607
     972           0      1269.956787   2821.732910  -56542.16796     95.969955
     973           0       920.578735   2954.234375  -56542.16796     89.546761
     974           0       557.775085   3043.657959  -56542.16796     83.026741
     975           0       186.834061   3088.698242  -56542.16796     78.255379
     976           0      3088.698242    186.835602  -56166.26562    112.915024
     977           0      3043.656982    557.779480  -56166.26562     58.935055
     978           0      2954.232422    920.584961  -56166.26562     74.337715
     979           0      2821.729736   1269.963745  -56166.26562     98.152283
     980           0      2648.080566   1600.823730  -56166.26562    107.509911
     981           0      2435.815918   1908.341309  -56166.26562    108.836304
     982           0      2188.029297   2188.033936  -56166.26562    108.670876
     983           0      1908.335693   2435.820313  -56166.26562    108.480064
     984           0      1600.816650   2648.084473  -56166.26562    106.572212
     985           0      1269.956787   2821.732910  -56166.26562    101.709023
     986           0       920.578674   2954.234375  -56166.26562     94.668465
     987           0       557.775024   3043.657959  -56166.26562     87.570061
     988           0       186.834061   3088.698242  -56166.26562     82.400848
     989           0      3088.698242    186.835571  -55790.35937    119.416710
     990           0      3043.656982    557.779419  -55790.35937     62.029224
     991           0      2954.232422    920.584900  -55790.35937     75.142754
     992           0      2821.729736   1269.963623  -55790.35937    100.391426
     993           0      2648.080566   1600.823730  -55790.35937    111.174538
     994           0      2435.815918   1908.341309  -55790.35937    113.608849
     995           0      2188.029297   2188.033936  -55790.35937    114.336098
     996           0      1908.335693   2435.820313  -55790.35937    114.657310
     997           0      1600.816650   2648.084473  -55790.35937    112.746269
     998           0      1269.956665   2821.732910  -55790.35937    107.465370
     999           0       920.578552   2954.234375  -55790.35937     99.825935
    1000           0       557.774963   3043.657959  -55790.35937     92.173119
    1001           0       186.834061   3088.698242  -55790.35937     86.623672
    1002           0      3088.698242    186.835556  -55414.45312    125.603432
    1003           0      3043.657227    557.779419  -55414.45312     65.223457
    1004           0      2954.232910    920.584839  -55414.45312     75.998466
    1005           0      2821.729980   1269.963623  -55414.45312    102.606995
    1006           0      2648.080566   1600.823608  -55414.45312    114.832664
    1007           0      2435.815918   1908.341309  -55414.45312    118.395683
    1008           0      2188.029297   2188.033936  -55414.45312    120.016434
    1009           0      1908.335693   2435.820313  -55414.45312    120.840591
    1010           0      1600.816650   2648.084473  -55414.45312    118.924156
    1011           0      1269.956543   2821.732910  -55414.45312    113.235092
    1012           0       920.578491   2954.234863  -55414.45312    105.019096
    1013           0       557.774963   3043.657959  -55414.45312     96.837601
    1014           0       186.834061   3088.698242  -55414.45312     90.926453
    1015           0      3088.698242    186.835526  -55038.55468    131.445190
    1016           0      3043.657227    557.779297  -55038.55468     68.442413
    1017           0      2954.232910    920.584839  -55038.55468     76.893318
    1018           0      2821.729980   1269.963501  -55038.55468    104.793007
    1019           0      2648.080566   1600.823486  -55038.55468    118.473534
    1020           0      2435.816162   1908.341309  -55038.55468    123.181358
    1021           0      2188.029541   2188.033691  -55038.55468    125.695007
    1022           0      1908.335693   2435.820313  -55038.55468    127.018379
    1023           0      1600.816650   2648.084473  -55038.55468    125.098602
    1024           0      1269.956543   2821.732910  -55038.55468    119.015289
    1025           0       920.578491   2954.234863  -55038.55468    110.247391
    1026           0       557.774963   3043.657959  -55038.55468    101.565323
    1027           0       186.834061   3088.698242  -55038.55468     95.310745
    1028           0      3088.698242    186.835510  -54662.65234    136.920914
    1029           0      3043.657227    557.779236  -54662.65234     71.621643
    1030           0      2954.232910    920.584656  -54662.65234     77.818993
    1031           0      2821.729980   1269.963501  -54662.65234    106.946747
    1032           0      2648.080566   1600.823486  -54662.65234    122.086121
    1033           0      2435.816162   1908.341309  -54662.65234    127.953636
    1034           0      2188.029541   2188.033691  -54662.65234    131.360550
    1035           0      1908.335693   2435.820313  -54662.65234    133.178177
    1036           0      1600.816650   2648.084473  -54662.65234    131.261551
    1037           0      1269.956543   2821.732910  -54662.65234    124.802200
    1038           0       920.578491   2954.234863  -54662.65234    115.510735
    1039           0       557.774963   3043.657959  -54662.65234    106.357391
    1040           0       186.834061   3088.698242  -54662.65234     99.779221
    1041           0      3088.698242    186.835480  -54286.74609    142.020477
    1042           0      3043.657227    557.779236  -54286.74609     74.716431
    1043           0      2954.232910    920.584595  -54286.74609     78.773003
    1044           0      2821.729980   1269.963379  -54286.74609    109.067558
    1045           0      2648.080566   1600.823486  -54286.74609    125.665665
    1046           0      2435.816162   1908.341309  -54286.74609    132.700058
    1047           0      2188.029541   2188.033691  -54286.74609    136.997879
    1048           0      1908.335693   2435.820313  -54286.74609    139.310333
    1049           0      1600.816650   2648.084473  -54286.74609    137.406006
    1050           0      1269.956543   2821.732910  -54286.74609    130.592575
    1051           0       920.578491   2954.234863  -54286.74609    120.808990
    1052           0       557.774963   3043.657959  -54286.74609    111.215775
    1053           0       186.834061   3088.698242  -54286.74609    104.333359
    1054           0      3088.698242    186.835480  -53910.84375    146.740128
    1055           0      3043.657227    557.779175  -53910.84375     77.692192
    1056           0      2954.232910    920.584534  -53910.84375     79.755676
    1057           0      2821.729980   1269.963379  -53910.84375    111.160507
    1058           0      2648.080566   1600.823364  -53910.84375    129.204086
    1059           0      2435.816162   1908.341309  -53910.84375    137.414246
    1060           0      2188.029541   2188.033691  -53910.84375    142.600723
    1061           0      1908.335693   2435.820313  -53910.84375    145.404312
    1062           0      1600.816650   2648.084473  -53910.84375    143.524887
    1063           0      1269.956543   2821.732910  -53910.84375    136.384491
    1064           0       920.578491   2954.234863  -53910.84375    126.142525
    1065           0       557.774902   3043.657959  -53910.84375    116.142647
    1066           0       186.833984   3088.698242  -53910.84375    108.977295
    1067           0      3088.698242    186.835449  -53534.93750    151.075272
    1068           0      3043.657227    557.779114  -53534.93750     80.526054
    1069           0      2954.232910    920.584473  -53534.93750     80.772202
    1070           0      2821.729980   1269.963379  -53534.93750    113.229111
    1071           0      2648.080566   1600.823364  -53534.93750    132.702744
    1072           0      2435.816162   1908.341064  -53534.93750    142.088898
    1073           0      2188.029541   2188.033691  -53534.93750    148.157059
    1074           0      1908.335693   2435.820313  -53534.93750    151.450958
    1075           0      1600.816650   2648.084473  -53534.93750    149.611084
    1076           0      1269.956543   2821.732910  -53534.93750    142.173325
    1077           0       920.578491   2954.234863  -53534.93750    131.511047
    1078           0       557.774780   3043.657959  -53534.93750    121.139008
    1079           0       186.833908   3088.698242  -53534.93750    113.711517
    1080           0      3088.698242    186.835434  -53159.03906    155.028137
    1081           0      3043.657227    557.779053  -53159.03906     83.202202
    1082           0      2954.232910    920.584412  -53159.03906     81.829674
    1083           0      2821.729980   1269.963135  -53159.03906    115.284927
    1084           0      2648.080566   1600.823242  -53159.03906    136.157501
    1085           0      2435.816406   1908.340942  -53159.03906    146.711807
    1086           0      2188.029541   2188.033691  -53159.03906    153.657776
    1087           0      1908.335693   2435.820313  -53159.03906    157.441986
    1088           0      1600.816650   2648.084473  -53159.03906    155.657028
    1089           0      1269.956543   2821.732910  -53159.03906    147.955597
    1090           0       920.578430   2954.234863  -53159.03906    136.914398
    1091           0       557.774780   3043.657959  -53159.03906    126.205612
    1092           0       186.833908   3088.698242  -53159.03906    118.536469
    1093           0      3088.698242    186.835419  -52783.13281    158.604446
    1094           0      3043.657227    557.779053  -52783.13281     85.712486
    1095           0      2954.232910    920.584351  -52783.13281     82.941116
    1096           0      2821.729980   1269.963135  -52783.13281    117.337975
    1097           0      2648.080811   1600.823242  -52783.13281    139.567917
    1098           0      2435.816406   1908.340942  -52783.13281    151.284500
    1099           0      2188.029541   2188.033691  -52783.13281    159.099747
    1100           0      1908.335693   2435.820313  -52783.13281    163.368668
    1101           0      1600.816650   2648.084473  -52783.13281    161.657028
    1102           0      1269.956543   2821.732910  -52783.13281    153.729004
    1103           0       920.578308   2954.234863  -52783.13281    142.352631
    1104           0       557.774719   3043.657959  -52783.13281    131.345352
    1105           0       186.833908   3088.698242  -52783.13281    123.455719
    1106           0      3088.698242    186.835388  -52407.23046    161.809784
    1107           0      3043.657227    557.778931  -52407.23046     88.055344
    1108           0      2954.232910    920.584351  -52407.23046     84.120033
    1109           0      2821.729980   1269.963135  -52407.23046    119.397728
    1110           0      2648.080811   1600.823242  -52407.23046    142.948410
    1111           0      2435.816406   1908.340942  -52407.23046    155.808044
    1112           0      2188.029541   2188.033691  -52407.23046    164.472473
    1113           0      1908.335693   2435.820313  -52407.23046    169.224808
    1114           0      1600.816650   2648.084473  -52407.23046    167.605713
    1115           0      1269.956543   2821.732910  -52407.23046    159.490570
    1116           0       920.578247   2954.234863  -52407.23046    147.826736
    1117           0       557.774658   3043.657959  -52407.23046    136.559143
    1118           0       186.833908   3088.698242  -52407.23046    128.470535
    1119           0      3088.698242    186.835388  -52031.32812    164.652786
    1120           0      3043.657227    557.778931  -52031.32812     90.234146
    1121           0      2954.232910    920.584229  -52031.32812     85.383293
    1122           0      2821.729980   1269.963013  -52031.32812    121.483734
    1123           0      2648.080811   1600.822998  -52031.32812    146.295380
    1124           0      2435.816406   1908.340942  -52031.32812    160.273804
    1125           0      2188.029541   2188.033691  -52031.32812    169.776276
    1126           0      1908.335693   2435.820313  -52031.32812    175.004532
    1127           0      1600.816650   2648.084473  -52031.32812    173.497757
    1128           0      1269.956543   2821.732910  -52031.32812    165.237915
    1129           0       920.578247   2954.234863  -52031.32812    153.336243
    1130           0       557.774658   3043.657959  -52031.32812    141.849258
    1131           0       186.833908   3088.698242  -52031.32812    133.582947
    1132           0      3088.698242    186.835358  -51655.42187    167.143219
    1133           0      3043.657227    557.778870  -51655.42187     92.257324
    1134           0      2954.232910    920.584167  -51655.42187     86.748947
    1135           0      2821.729980   1269.963013  -51655.42187    123.611946
    1136           0      2648.080811   1600.822998  -51655.42187    149.616806
    1137           0      2435.816406   1908.340942  -51655.42187    164.683548
    1138           0      2188.029541   2188.033691  -51655.42187    175.005356
    1139           0      1908.335693   2435.820313  -51655.42187    180.703445
    1140           0      1600.816650   2648.084473  -51655.42187    179.327576
    1141           0      1269.956543   2821.732910  -51655.42187    170.969498
    1142           0       920.578247   2954.234863  -51655.42187    158.882309
    1143           0       557.774658   3043.657959  -51655.42187    147.216446
    1144           0       186.833908   3088.698242  -51655.42187    138.793488
    1145           0      3088.698242    186.835327  -51279.51562    169.292007
    1146           0      3043.657227    557.778809  -51279.51562     94.138466
    1147           0      2954.232910    920.584045  -51279.51562     88.239449
    1148           0      2821.729980   1269.962891  -51279.51562    125.799431
    1149           0      2648.080811   1600.822998  -51279.51562    152.923248
    1150           0      2435.816406   1908.340942  -51279.51562    169.040878
    1151           0      2188.029785   2188.033691  -51279.51562    180.157166
    1152           0      1908.335815   2435.820313  -51279.51562    186.315887
    1153           0      1600.816650   2648.084473  -51279.51562    185.092407
    1154           0      1269.956543   2821.732910  -51279.51562    176.682343
    1155           0       920.578247   2954.234863  -51279.51562    164.464478
    1156           0       557.774658   3043.657959  -51279.51562    152.662323
    1157           0       186.833908   3088.698242  -51279.51562    144.104172
    1158           0      3088.698242    186.835297  -50903.61718    171.111786
    1159           0      3043.657227    557.778748  -50903.61718     95.894814
    1160           0      2954.232910    920.583984  -50903.61718     89.877747
    1161           0      2821.730225   1269.962891  -50903.61718    128.062454
    1162           0      2648.081055   1600.822998  -50903.61718    156.221329
    1163           0      2435.816406   1908.340820  -50903.61718    173.346176
    1164           0      2188.029785   2188.033447  -50903.61718    185.229660
    1165           0      1908.335938   2435.820068  -50903.61718    191.839661
    1166           0      1600.816650   2648.084473  -50903.61718    190.787598
    1167           0      1269.956543   2821.732910  -50903.61718    182.375412
    1168           0       920.578247   2954.234863  -50903.61718    170.083481
    1169           0       557.774597   3043.657959  -50903.61718    158.187241
    1170           0       186.833832   3088.698242  -50903.61718    149.515762
    1171           0      3088.698242    186.835297  -50527.71093    172.616913
    1172           0      3043.657227    557.778687  -50527.71093     97.549271
    1173           0      2954.232910    920.583923  -50527.71093     91.688034
    1174           0      2821.730225   1269.962769  -50527.71093    130.421692
    1175           0      2648.081055   1600.822998  -50527.71093    159.523911
    1176           0      2435.816406   1908.340820  -50527.71093    177.603500
    1177           0      2188.029785   2188.033447  -50527.71093    190.221985
    1178           0      1908.335938   2435.820068  -50527.71093    197.270477
    1179           0      1600.816650   2648.084473  -50527.71093    196.413162
    1180           0      1269.956421   2821.733154  -50527.71093    188.047531
    1181           0       920.578186   2954.234863  -50527.71093    175.740112
    1182           0       557.774536   3043.657959  -50527.71093    163.794449
    1183           0       186.833771   3088.698242  -50527.71093    155.028839
    1184           0      3088.698242    186.835266  -50151.80859    173.823196
    1185           0      3043.657227    557.778687  -50151.80859     99.128624
    1186           0      2954.232910    920.583862  -50151.80859     93.694839
    1187           0      2821.730225   1269.962646  -50151.80859    132.896957
    1188           0      2648.081055   1600.822754  -50151.80859    162.840240
    1189           0      2435.816406   1908.340576  -50151.80859    181.814514
    1190           0      2188.029785   2188.033447  -50151.80859    195.133118
    1191           0      1908.335938   2435.820068  -50151.80859    202.607742
    1192           0      1600.816650   2648.084473  -50151.80859    201.965790
    1193           0      1269.956299   2821.733154  -50151.80859    193.699631
    1194           0       920.578125   2954.234863  -50151.80859    181.434311
    1195           0       557.774536   3043.657959  -50151.80859    169.482971
    1196           0       186.833771   3088.698242  -50151.80859    160.643814
    1197           0      3088.698242    186.835266  -49775.90234    174.747498
    1198           0      3043.657227    557.778564  -49775.90234    100.662971
    1199           0      2954.232910    920.583862  -49775.90234     95.923477
    1200           0      2821.730225   1269.962524  -49775.90234    135.501160
    1201           0      2648.081055   1600.822632  -49775.90234    166.176956
    1202           0      2435.816406   1908.340576  -49775.90234    185.988174
    1203           0      2188.029785   2188.033447  -49775.90234    199.964981
    1204           0      1908.335938   2435.820068  -49775.90234    207.848129
    1205           0      1600.816650   2648.084473  -49775.90234    207.443314
    1206           0      1269.956299   2821.733154  -49775.90234    199.330383
    1207           0       920.578125   2954.234863  -49775.90234    187.167587
    1208           0       557.774536   3043.657959  -49775.90234    175.251556
    1209           0       186.833771   3088.698242  -49775.90234    166.360870
    1210           0      3088.698242    186.835236  -49400.00000    175.409698
    1211           0      3043.657227    557.778564  -49400.00000    102.187370
    1212           0      2954.232910    920.583740  -49400.00000     98.396767
    1213           0      2821.730225   1269.962524  -49400.00000    138.259155
    1214           0      2648.081055   1600.822632  -49400.00000    169.555542
    1215           0      2435.816406   1908.340576  -49400.00000    190.122437
    1216           0      2188.029785   2188.033447  -49400.00000    204.715164
    1217           0      1908.335938   2435.820068  -49400.00000    212.993225
    1218           0      1600.816650   2648.084473  -49400.00000    212.847229
    1219           0      1269.956299   2821.733154  -49400.00000    204.941345
    1220           0       920.578064   2954.234863  -49400.00000    192.939926
    1221           0       557.774475   3043.657959  -49400.00000    181.103165
    1222           0       186.833771   3088.698242  -49400.00000    172.179672
    1223           0      3088.698242    186.835220  -49024.09765    175.830338
    1224           0      3043.657227    557.778564  -49024.09765    103.742477
    1225           0      2954.232910    920.583740  -49024.09765    101.139488
    1226           0      2821.730225   1269.962524  -49024.09765    141.180252
    1227           0      2648.081055   1600.822632  -49024.09765    172.974335
    1228           0      2435.816406   1908.340576  -49024.09765    194.231766
    1229           0      2188.029785   2188.033447  -49024.09765    209.388290
    1230           0      1908.335938   2435.820068  -49024.09765    218.040161
    1231           0      1600.816650   2648.084717  -49024.09765    218.178619
    1232           0      1269.956299   2821.733398  -49024.09765    210.533554
    1233           0       920.578003   2954.234863  -49024.09765    198.752472
    1234           0       557.774353   3043.657959  -49024.09765    187.036697
    1235           0       186.833771   3088.698242  -49024.09765    178.100052
    1236           0      3088.698242    186.835205  -48648.19140    176.034149
    1237           0      3043.657227    557.778503  -48648.19140    105.371078
    1238           0      2954.232910    920.583679  -48648.19140    104.173920
    1239           0      2821.730225   1269.962402  -48648.19140    144.281357
    1240           0      2648.081055   1600.822510  -48648.19140    176.455994
    1241           0      2435.816650   1908.340576  -48648.19140    198.310791
    1242           0      2188.029785   2188.033447  -48648.19140    213.981766
    1243           0      1908.335938   2435.820068  -48648.19140    222.994354
    1244           0      1600.816650   2648.084717  -48648.19140    223.439072
    1245           0      1269.956299   2821.733398  -48648.19140    216.107468
    1246           0       920.578003   2954.234863  -48648.19140    204.605469
    1247           0       557.774353   3043.657959  -48648.19140    193.052200
    1248           0       186.833771   3088.698242  -48648.19140    184.121933
    1249           0      3088.698242    186.835175  -48272.28906    176.048782
    1250           0      3043.657227    557.778442  -48272.28906    107.119995
    1251           0      2954.232910    920.583618  -48272.28906    107.517433
    1252           0      2821.730469   1269.962402  -48272.28906    147.584427
    1253           0      2648.081055   1600.822510  -48272.28906    180.010010
    1254           0      2435.816650   1908.340576  -48272.28906    202.368958
    1255           0      2188.029785   2188.033447  -48272.28906    218.497803
    1256           0      1908.335938   2435.820068  -48272.28906    227.853851
    1257           0      1600.816650   2648.084717  -48272.28906    228.630585
    1258           0      1269.956177   2821.733398  -48272.28906    221.666504
    1259           0       920.577881   2954.234863  -48272.28906    210.499817
    1260           0       557.774353   3043.657959  -48272.28906    199.149231
    1261           0       186.833771   3088.698242  -48272.28906    190.244186
    1262           0      3088.698242    186.835175  -47896.38671    175.904037
    1263           0      3043.657227    557.778381  -47896.38671    109.039825
    1264           0      2954.232910    920.583496  -47896.38671    111.189468
    1265           0      2821.730469   1269.962402  -47896.38671    151.094528
    1266           0      2648.081299   1600.822388  -47896.38671    183.637131
    1267           0      2435.816895   1908.340576  -47896.38671    206.415039
    1268           0      2188.029785   2188.033447  -47896.38671    222.944366
    1269           0      1908.335938   2435.820068  -47896.38671    232.621796
    1270           0      1600.816650   2648.084717  -47896.38671    233.755112
    1271           0      1269.956055   2821.733398  -47896.38671    227.212753
    1272           0       920.577759   2954.234863  -47896.38671    216.435486
    1273           0       557.774292   3043.657959  -47896.38671    205.326965
    1274           0       186.833694   3088.698242  -47896.38671    196.466248
    1275           0      3088.698242    186.835144  -47520.48437    175.635010
    1276           0      3043.657227    557.778259  -47520.48437    111.181847
    1277           0      2954.232910    920.583435  -47520.48437    115.205009
    1278           0      2821.730469   1269.962158  -47520.48437    154.828354
    1279           0      2648.081299   1600.822266  -47520.48437    187.353317
    1280           0      2435.816895   1908.340576  -47520.48437    210.448563
    1281           0      2188.030029   2188.033447  -47520.48437    227.315140
    1282           0      1908.335938   2435.820068  -47520.48437    237.301910
    1283           0      1600.816650   2648.084717  -47520.48437    238.819550
    1284           0      1269.956055   2821.733398  -47520.48437    232.748825
    1285           0       920.577759   2954.234863  -47520.48437    222.413757
    1286           0       557.774170   3043.657959  -47520.48437    211.584488
    1287           0       186.833618   3088.698242  -47520.48437    202.786758
    1288           0      3088.698242    186.835114  -47144.57812    175.281708
    1289           0      3043.657227    557.778259  -47144.57812    113.599129
    1290           0      2954.232910    920.583374  -47144.57812    119.576180
    1291           0      2821.730469   1269.962158  -47144.57812    158.789719
    1292           0      2648.081299   1600.822266  -47144.57812    191.164230
    1293           0      2435.816895   1908.340332  -47144.57812    214.478897
    1294           0      2188.030029   2188.033203  -47144.57812    231.618927
    1295           0      1908.336182   2435.820068  -47144.57812    241.896423
    1296           0      1600.816650   2648.084717  -47144.57812    243.826080
    1297           0      1269.956055   2821.733398  -47144.57812    238.277649
    1298           0       920.577759   2954.234863  -47144.57812    228.434937
    1299           0       557.774170   3043.657959  -47144.57812    217.920776
    1300           0       186.833618   3088.698242  -47144.57812    209.204041
    1301           0      3088.698242    186.835083  -46768.67187    174.888214
    1302           0      3043.657227    557.778198  -46768.67187    116.344887
    1303           0      2954.232910    920.583374  -46768.67187    124.312508
    1304           0      2821.730469   1269.962036  -46768.67187    162.991455
    1305           0      2648.081299   1600.822266  -46768.67187    195.077347
    1306           0      2435.816895   1908.340332  -46768.67187    218.501724
    1307           0      2188.030029   2188.033203  -46768.67187    235.857925
    1308           0      1908.336182   2435.820068  -46768.67187    246.413422
    1309           0      1600.816650   2648.084717  -46768.67187    248.779099
    1310           0      1269.956055   2821.733398  -46768.67187    243.801636
    1311           0       920.577759   2954.234863  -46768.67187    234.499237
    1312           0       557.774170   3043.657959  -46768.67187    224.335068
    1313           0       186.833618   3088.698242  -46768.67187    215.716736
    1314           0      3088.698242    186.835083  -46392.76953    174.504974
    1315           0      3043.657227    557.778137  -46392.76953    119.468903
    1316           0      2954.232910    920.583252  -46392.76953    129.421234
    1317           0      2821.730469   1269.962036  -46392.76953    167.433929
    1318           0      2648.081299   1600.822144  -46392.76953    199.098022
    1319           0      2435.816895   1908.340210  -46392.76953    222.529251
    1320           0      2188.030029   2188.033203  -46392.76953    240.033081
    1321           0      1908.336182   2435.820068  -46392.76953    250.853806
    1322           0      1600.816650   2648.084717  -46392.76953    253.685913
    1323           0      1269.956055   2821.733398  -46392.76953    249.324982
    1324           0       920.577759   2954.234863  -46392.76953    240.607285
    1325           0       557.774170   3043.657959  -46392.76953    230.825821
    1326           0       186.833618   3088.698242  -46392.76953    222.322983
    1327           0      3088.698242    186.835052  -46016.86718    174.189026
    1328           0      3043.657227    557.778137  -46016.86718    123.019737
    1329           0      2954.232910    920.583252  -46016.86718    134.903381
    1330           0      2821.730469   1269.961914  -46016.86718    172.124557
    1331           0      2648.081299   1600.822144  -46016.86718    203.228867
    1332           0      2435.816895   1908.340210  -46016.86718    226.556839
    1333           0      2188.030029   2188.033203  -46016.86718    244.150955
    1334           0      1908.336182   2435.820068  -46016.86718    255.226074
    1335           0      1600.816650   2648.084717  -46016.86718    258.551697
    1336           0      1269.956055   2821.733398  -46016.86718    254.850266
    1337           0       920.577759   2954.234863  -46016.86718    246.758667
    1338           0       557.774109   3043.657959  -46016.86718    237.391953
    1339           0       186.833618   3088.698242  -46016.86718    229.021179
    1340           0      3088.698242    186.835052  -45640.96484    174.002304
    1341           0      3043.657227    557.778076  -45640.96484    127.041634
    1342           0      2954.232910    920.583191  -45640.96484    140.762146
    1343           0      2821.730469   1269.961914  -45640.96484    177.057617
    1344           0      2648.081543   1600.822021  -45640.96484    207.475388
    1345           0      2435.816895   1908.340210  -45640.96484    230.594330
    1346           0      2188.030029   2188.033203  -45640.96484    248.211914
    1347           0      1908.336182   2435.820068  -45640.96484    259.534241
    1348           0      1600.816650   2648.084717  -45640.96484    263.382202
    1349           0      1269.956055   2821.733398  -45640.96484    260.380981
    1350           0       920.577637   2954.234863  -45640.96484    252.953796
    1351           0       557.774048   3043.657959  -45640.96484    244.030533
    1352           0       186.833618   3088.698242  -45640.96484    235.809906
    1353           0      3088.698242    186.835022  -45265.05859    174.015686
    1354           0      3043.657227    557.778015  -45265.05859    131.571213
    1355           0      2954.232910    920.583069  -45265.05859    146.995071
    1356           0      2821.730469   1269.961914  -45265.05859    182.240295
    1357           0      2648.081543   1600.822021  -45265.05859    211.837814
    1358           0      2435.816895   1908.340210  -45265.05859    234.637848
    1359           0      2188.030029   2188.033203  -45265.05859    252.222107
    1360           0      1908.336182   2435.820068  -45265.05859    263.786438
    1361           0      1600.816650   2648.084717  -45265.05859    268.183502
    1362           0      1269.955933   2821.733398  -45265.05859    265.919739
    1363           0       920.577515   2954.234863  -45265.05859    259.192413
    1364           0       557.774048   3043.657959  -45265.05859    250.740997
    1365           0       186.833618   3088.698242  -45265.05859    242.687347
    1366           0      3088.698242    186.834991  -44889.15625    174.306519
    1367           0      3043.657227    557.777954  -44889.15625    136.639465
    1368           0      2954.233154    920.583008  -44889.15625    153.593796
    1369           0      2821.730713   1269.961792  -44889.15625    187.663849
    1370           0      2648.081543   1600.822021  -44889.15625    216.313522
    1371           0      2435.816895   1908.340210  -44889.15625    238.687531
    1372           0      2188.030029   2188.033203  -44889.15625    256.187500
    1373           0      1908.336182   2435.820068  -44889.15625    267.990723
    1374           0      1600.816650   2648.084717  -44889.15625    272.962433
    1375           0      1269.955933   2821.733398  -44889.15625    271.469391
    1376           0       920.577515   2954.234863  -44889.15625    265.473541
    1377           0       557.773987   3043.658203  -44889.15625    257.522736
    1378           0       186.833557   3088.698486  -44889.15625    249.651764
    1379           0      3088.698242    186.834991  -44513.25000    174.954117
    1380           0      3043.657227    557.777893  -44513.25000    142.274719
    1381           0      2954.233154    920.582947  -44513.25000    160.554779
    1382           0      2821.730713   1269.961670  -44513.25000    193.320984
    1383           0      2648.081543   1600.821777  -44513.25000    220.900589
    1384           0      2435.816895   1908.340088  -44513.25000    242.750183
    1385           0      2188.030273   2188.033203  -44513.25000    260.110291
    1386           0      1908.336182   2435.820068  -44513.25000    272.152252
    1387           0      1600.816650   2648.084717  -44513.25000    277.724426
    1388           0      1269.955933   2821.733398  -44513.25000    277.032623
    1389           0       920.577515   2954.234863  -44513.25000    271.797638
    1390           0       557.773926   3043.658203  -44513.25000    264.372589
    1391           0       186.833481   3088.698730  -44513.25000    256.701416
    1392           0      3088.698242    186.834961  -44137.35156    176.046906
    1393           0      3043.657227    557.777832  -44137.35156    148.490585
    1394           0      2954.233154    920.582886  -44137.35156    167.870712
    1395           0      2821.730713   1269.961670  -44137.35156    199.211319
    1396           0      2648.081543   1600.821777  -44137.35156    225.594086
    1397           0      2435.816895   1908.340088  -44137.35156    246.819977
    1398           0      2188.030273   2188.033203  -44137.35156    263.999023
    1399           0      1908.336182   2435.820068  -44137.35156    276.281128
    1400           0      1600.816650   2648.084717  -44137.35156    282.475159
    1401           0      1269.955933   2821.733398  -44137.35156    282.610443
    1402           0       920.577515   2954.234863  -44137.35156    278.164215
    1403           0       557.773926   3043.658203  -44137.35156    271.289917
    1404           0       186.833481   3088.698730  -44137.35156    263.834106
    1405           0      3088.698242    186.834961  -43761.44531    177.674210
    1406           0      3043.657227    557.777832  -43761.44531    155.299667
    1407           0      2954.233398    920.582825  -43761.44531    175.525742
    1408           0      2821.730713   1269.961670  -43761.44531    205.315689
    1409           0      2648.081543   1600.821777  -43761.44531    230.391510
    1410           0      2435.816895   1908.339844  -43761.44531    250.904327
    1411           0      2188.030273   2188.033203  -43761.44531    267.857605
    1412           0      1908.336182   2435.820068  -43761.44531    280.382629
    1413           0      1600.816650   2648.084717  -43761.44531    287.221008
    1414           0      1269.955933   2821.733398  -43761.44531    288.207214
    1415           0       920.577515   2954.234863  -43761.44531    284.573669
    1416           0       557.773926   3043.658203  -43761.44531    278.274048
    1417           0       186.833481   3088.698730  -43761.44531    271.048401
    1418           0      3088.698242    186.834930  -43385.54296    179.925049
    1419           0      3043.657227    557.777710  -43385.54296    162.703003
    1420           0      2954.233398    920.582764  -43385.54296    183.509171
    1421           0      2821.730957   1269.961548  -43385.54296    211.627472
    1422           0      2648.081543   1600.821655  -43385.54296    235.284576
    1423           0      2435.816895   1908.339844  -43385.54296    254.995697
    1424           0      2188.030273   2188.033203  -43385.54296    271.694611
    1425           0      1908.336182   2435.820068  -43385.54296    284.466583
    1426           0      1600.816650   2648.084717  -43385.54296    291.963989
    1427           0      1269.955933   2821.733398  -43385.54296    293.822144
    1428           0       920.577515   2954.234863  -43385.54296    291.025452
    1429           0       557.773926   3043.658203  -43385.54296    285.322632
    1430           0       186.833481   3088.698730  -43385.54296    278.342377
    1431           0      3088.698242    186.834900  -43009.64062    182.885010
    1432           0      3043.657227    557.777649  -43009.64062    170.697937
    1433           0      2954.233398    920.582703  -43009.64062    191.800430
    1434           0      2821.730957   1269.961426  -43009.64062    218.127594
    1435           0      2648.081787   1600.821655  -43009.64062    240.264679
    1436           0      2435.817139   1908.339844  -43009.64062    259.099640
    1437           0      2188.030273   2188.033203  -43009.64062    275.514771
    1438           0      1908.336182   2435.819824  -43009.64062    288.538177
    1439           0      1600.816650   2648.084717  -43009.64062    296.708801
    1440           0      1269.955933   2821.733398  -43009.64062    299.457703
    1441           0       920.577515   2954.234863  -43009.64062    297.518188
    1442           0       557.773926   3043.658203  -43009.64062    292.433258
    1443           0       186.833481   3088.698730  -43009.64062    285.713074
    1444           0      3088.698242    186.834869  -42633.73437    186.636597
    1445           0      3043.657227    557.777649  -42633.73437    179.272034
    1446           0      2954.233398    920.582581  -42633.73437    200.384354
    1447           0      2821.730957   1269.961426  -42633.73437    224.802765
    1448           0      2648.081787   1600.821655  -42633.73437    245.325317
    1449           0      2435.817139   1908.339844  -42633.73437    263.217133
    1450           0      2188.030273   2188.033203  -42633.73437    279.322327
    1451           0      1908.336182   2435.819824  -42633.73437    292.603455
    1452           0      1600.816650   2648.084717  -42633.73437    301.462982
    1453           0      1269.955811   2821.733398  -42633.73437    305.115173
    1454           0       920.577271   2954.234863  -42633.73437    304.052429
    1455           0       557.773865   3043.658203  -42633.73437    299.606171
    1456           0       186.833481   3088.698730  -42633.73437    293.159271
    1457           0      3088.698242    186.834869  -42257.82812    191.249908
    1458           0      3043.657227    557.777588  -42257.82812    188.412582
    1459           0      2954.233398    920.582581  -42257.82812    209.238068
    1460           0      2821.730957   1269.961426  -42257.82812    231.634033
    1461           0      2648.081787   1600.821533  -42257.82812    250.454422
    1462           0      2435.817383   1908.339844  -42257.82812    267.350372
    1463           0      2188.030273   2188.033203  -42257.82812    283.129272
    1464           0      1908.336182   2435.819824  -42257.82812    296.668518
    1465           0      1600.816650   2648.084717  -42257.82812    306.224884
    1466           0      1269.955811   2821.733398  -42257.82812    310.796631
    1467           0       920.577271   2954.234863  -42257.82812    310.628082
    1468           0       557.773804   3043.658203  -42257.82812    306.839844
    1469           0       186.833481   3088.698730  -42257.82812    300.678894
    1470           0      3088.698242    186.834839  -41881.92968    196.786026
    1471           0      3043.657227    557.777588  -41881.92968    198.094666
    1472           0      2954.233398    920.582520  -41881.92968    218.340637
    1473           0      2821.730957   1269.961426  -41881.92968    238.602737
    1474           0      2648.081787   1600.821533  -41881.92968    255.646164
    1475           0      2435.817383   1908.339722  -41881.92968    271.499817
    1476           0      2188.030273   2188.032959  -41881.92968    286.937897
    1477           0      1908.336182   2435.819824  -41881.92968    300.738129
    1478           0      1600.816650   2648.084717  -41881.92968    311.001190
    1479           0      1269.955811   2821.733398  -41881.92968    316.502594
    1480           0       920.577271   2954.234863  -41881.92968    317.245636
    1481           0       557.773804   3043.658203  -41881.92968    314.133209
    1482           0       186.833481   3088.698730  -41881.92968    308.270599
    1483           0      3088.698242    186.834824  -41506.02734    203.286575
    1484           0      3043.657227    557.777527  -41506.02734    208.296234
    1485           0      2954.233398    920.582397  -41506.02734    227.663315
    1486           0      2821.730957   1269.961182  -41506.02734    245.689072
    1487           0      2648.081787   1600.821533  -41506.02734    260.892365
    1488           0      2435.817383   1908.339722  -41506.02734    275.664673
    1489           0      2188.030273   2188.032959  -41506.02734    290.755188
    1490           0      1908.336182   2435.820068  -41506.02734    304.820862
    1491           0      1600.816650   2648.084717  -41506.02734    315.792084
    1492           0      1269.955811   2821.733398  -41506.02734    322.234985
    1493           0       920.577271   2954.234863  -41506.02734    323.905396
    1494           0       557.773682   3043.658203  -41506.02734    321.485535
    1495           0       186.833405   3088.698730  -41506.02734    315.932861
    1496           0      3088.698242    186.834808  -41130.12109    210.782623
    1497           0      3043.657227    557.777466  -41130.12109    218.980804
    1498           0      2954.233398    920.582397  -41130.12109    237.183777
    1499           0      2821.730957   1269.961182  -41130.12109    252.870819
    1500           0      2648.081787   1600.821289  -41130.12109    266.185120
    1501           0      2435.817383   1908.339600  -41130.12109    279.853699
    1502           0      2188.030273   2188.032959  -41130.12109    294.587311
    1503           0      1908.336060   2435.820068  -41130.12109    308.915039
    1504           0      1600.816406   2648.084961  -41130.12109    320.601349
    1505           0      1269.955811   2821.733398  -41130.12109    327.994171
    1506           0       920.577271   2954.234863  -41130.12109    330.607025
    1507           0       557.773621   3043.658203  -41130.12109    328.895966
    1508           0       186.833328   3088.698730  -41130.12109    323.663055
    1509           0      3088.698242    186.834778  -40754.21875    219.282806
    1510           0      3043.657227    557.777344  -40754.21875    230.115891
    1511           0      2954.233398    920.582275  -40754.21875    246.867676
    1512           0      2821.730957   1269.961182  -40754.21875    260.133362
    1513           0      2648.081787   1600.821289  -40754.21875    271.513519
    1514           0      2435.817383   1908.339600  -40754.21875    284.064941
    1515           0      2188.030273   2188.032959  -40754.21875    298.438141
    1516           0      1908.336060   2435.820068  -40754.21875    313.028381
    1517           0      1600.816406   2648.084961  -40754.21875    325.429291
    1518           0      1269.955811   2821.733398  -40754.21875    333.782349
    1519           0       920.577271   2954.234863  -40754.21875    337.350677
    1520           0       557.773621   3043.658203  -40754.21875    336.364441
    1521           0       186.833328   3088.698730  -40754.21875    331.460388
    1522           0      3088.698242    186.834778  -40378.31250    228.784882
    1523           0      3043.657227    557.777344  -40378.31250    241.657944
    1524           0      2954.233398    920.582275  -40378.31250    256.687775
    1525           0      2821.730957   1269.961060  -40378.31250    267.451202
    1526           0      2648.082031   1600.821289  -40378.31250    276.879578
    1527           0      2435.817383   1908.339600  -40378.31250    288.302216
    1528           0      2188.030273   2188.032959  -40378.31250    302.312744
    1529           0      1908.336060   2435.820068  -40378.31250    317.158295
    1530           0      1600.816406   2648.084961  -40378.31250    330.279785
    1531           0      1269.955811   2821.733398  -40378.31250    339.600555
    1532           0       920.577271   2954.234863  -40378.31250    344.137482
    1533           0       557.773621   3043.658203  -40378.31250    343.888000
    1534           0       186.833328   3088.698730  -40378.31250    339.324738
    1535           0      3088.698242    186.834747  -40002.40625    239.258408
    1536           0      3043.657227    557.777283  -40002.40625    253.567444
    1537           0      2954.233398    920.582153  -40002.40625    266.609314
    1538           0      2821.730957   1269.960938  -40002.40625    274.808563
    1539           0      2648.082031   1600.821167  -40002.40625    282.277008
    1540           0      2435.817383   1908.339478  -40002.40625    292.573456
    1541           0      2188.030273   2188.032959  -40002.40625    306.207367
    1542           0      1908.336060   2435.820068  -40002.40625    321.310730
    1543           0      1600.816406   2648.084961  -40002.40625    335.153046
    1544           0      1269.955688   2821.733398  -40002.40625    345.449921
    1545           0       920.577148   2954.234863  -40002.40625    350.967896
    1546           0       557.773621   3043.658203  -40002.40625    351.467102
    1547           0       186.833328   3088.698730  -40002.40625    347.253021
    1548           0      3088.698242    186.834717  -39626.50781    250.674271
    1549           0      3043.657227    557.777222  -39626.50781    265.787964
    1550           0      2954.233398    920.582092  -39626.50781    276.604584
    1551           0      2821.730957   1269.960938  -39626.50781    282.190491
    1552           0      2648.082031   1600.821167  -39626.50781    287.704346
    1553           0      2435.817383   1908.339478  -39626.50781    296.871857
    1554           0      2188.030273   2188.032715  -39626.50781    310.130890
    1555           0      1908.336182   2435.819824  -39626.50781    325.483612
    1556           0      1600.816406   2648.084961  -39626.50781    340.053040
    1557           0      1269.955688   2821.733398  -39626.50781    351.332977
    1558           0       920.577148   2954.234863  -39626.50781    357.841156
    1559           0       557.773621   3043.658203  -39626.50781    359.102417
    1560           0       186.833328   3088.698730  -39626.50781    355.242523
    1561           0      3088.698242    186.834686  -39250.60156    262.965179
    1562           0      3043.657227    557.777161  -39250.60156    278.276672
    1563           0      2954.233398    920.582031  -39250.60156    286.637512
    1564           0      2821.730957   1269.960938  -39250.60156    289.588409
    1565           0      2648.082031   1600.821045  -39250.60156    293.160309
    1566           0      2435.817383   1908.339355  -39250.60156    301.206146
    1567           0      2188.030518   2188.032715  -39250.60156    314.076813
    1568           0      1908.336182   2435.819824  -39250.60156    329.682709
    1569           0      1600.816406   2648.084961  -39250.60156    344.978607
    1570           0      1269.955688   2821.733398  -39250.60156    357.250458
    1571           0       920.577148   2954.234863  -39250.60156    364.759552
    1572           0       557.773621   3043.658203  -39250.60156    366.791534
    1573           0       186.833328   3088.698730  -39250.60156    363.293121
    1574           0      3088.698242    186.834686  -38874.69921    276.081696
    1575           0      3043.657227    557.777100  -38874.69921    290.966278
    1576           0      2954.233398    920.581909  -38874.69921    296.687714
    1577           0      2821.730957   1269.960693  -38874.69921    296.992645
    1578           0      2648.082031   1600.821045  -38874.69921    298.645447
    1579           0      2435.817383   1908.339355  -38874.69921    305.565613
    1580           0      2188.030518   2188.032715  -38874.69921    318.051727
    1581           0      1908.336182   2435.819824  -38874.69921    333.904297
    1582           0      1600.816406   2648.084961  -38874.69921    349.935974
    1583           0      1269.955566   2821.733398  -38874.69921    363.202576
    1584           0       920.577026   2954.234863  -38874.69921    371.721375
    1585           0       557.773560   3043.658203  -38874.69921    374.534149
    1586           0       186.833328   3088.698730  -38874.69921    371.405060
    1587           0      3088.698242    186.834656  -38498.79687    289.917389
    1588           0      3043.657227    557.777100  -38498.79687    303.816589
    1589           0      2954.233398    920.581909  -38498.79687    306.721252
    1590           0      2821.730957   1269.960693  -38498.79687    304.403748
    1591           0      2648.082031   1600.821045  -38498.79687    304.159058
    1592           0      2435.817383   1908.339355  -38498.79687    309.956604
    1593           0      2188.030762   2188.032715  -38498.79687    322.046936
    1594           0      1908.336182   2435.819824  -38498.79687    338.154388
    1595           0      1600.816406   2648.084961  -38498.79687    354.921570
    1596           0      1269.955566   2821.733398  -38498.79687    369.193695
    1597           0       920.577026   2954.234863  -38498.79687    378.728119
    1598           0       557.773438   3043.658203  -38498.79687    382.330963
    1599           0       186.833252   3088.698730  -38498.79687    379.575073
    1600           0      3088.698242    186.834656  -38122.89062    304.415253
    1601           0      3043.657227    557.777039  -38122.89062    316.753998
    1602           0      2954.233398    920.581909  -38122.89062    316.739777
    1603           0      2821.730957   1269.960693  -38122.89062    311.809479
    1604           0      2648.082031   1600.820801  -38122.89062    309.697052
    1605           0      2435.817627   1908.339355  -38122.89062    314.371185
    1606           0      2188.030762   2188.032715  -38122.89062    326.071838
    1607           0      1908.336182   2435.819824  -38122.89062    342.432281
    1608           0      1600.816406   2648.084961  -38122.89062    359.941162
    1609           0      1269.955566   2821.733398  -38122.89062    375.219849
    1610           0       920.577026   2954.234863  -38122.89062    385.782898
    1611           0       557.773315   3043.658203  -38122.89062    390.180786
    1612           0       186.833191   3088.698730  -38122.89062    387.803650
    1613           0      3088.698242    186.834625  -37746.98828    319.424866
    1614           0      3043.657471    557.776978  -37746.98828    329.747498
    1615           0      2954.233398    920.581787  -37746.98828    326.712402
    1616           0      2821.730957   1269.960693  -37746.98828    319.233154
    1617           0      2648.082031   1600.820801  -37746.98828    315.251007
    1618           0      2435.817627   1908.339355  -37746.98828    318.807556
    1619           0      2188.030762   2188.032715  -37746.98828    330.121124
    1620           0      1908.336182   2435.819824  -37746.98828    346.740692
    1621           0      1600.816406   2648.084961  -37746.98828    364.990570
    1622           0      1269.955444   2821.733398  -37746.98828    381.289520
    1623           0       920.576904   2954.234863  -37746.98828    392.883423
    1624           0       557.773315   3043.658203  -37746.98828    398.083191
    1625           0       186.833191   3088.698730  -37746.98828    396.088654
    1626           0      3088.698242    186.834595  -37371.08593    334.900940
    1627           0      3043.657471    557.776978  -37371.08593    342.735748
    1628           0      2954.233643    920.581787  -37371.08593    336.671936
    1629           0      2821.731201   1269.960571  -37371.08593    326.646454
    1630           0      2648.082031   1600.820679  -37371.08593    320.824890
    1631           0      2435.817627   1908.339355  -37371.08593    323.261841
    1632           0      2188.030762   2188.032715  -37371.08593    334.200073
    1633           0      1908.336182   2435.819824  -37371.08593    351.074890
    1634           0      1600.816406   2648.084961  -37371.08593    370.075287
    1635           0      1269.955322   2821.733398  -37371.08593    387.395874
    1636           0       920.576782   2954.235107  -37371.08593    400.031677
    1637           0       557.773315   3043.658203  -37371.08593    406.035858
    1638           0       186.833191   3088.698730  -37371.08593    404.428589
    1639           0      3088.698242    186.834595  -36995.18359    350.646729
    1640           0      3043.657471    557.776855  -36995.18359    355.706512
    1641           0      2954.233643    920.581604  -36995.18359    346.589172
    1642           0      2821.731445   1269.960449  -36995.18359    334.076660
    1643           0      2648.082275   1600.820679  -36995.18359    326.391602
    1644           0      2435.817627   1908.339111  -36995.18359    327.740875
    1645           0      2188.030762   2188.032715  -36995.18359    338.300995
    1646           0      1908.336182   2435.819824  -36995.18359    355.443481
    1647           0      1600.816406   2648.084961  -36995.18359    375.198059
    1648           0      1269.955322   2821.733398  -36995.18359    393.551788
    1649           0       920.576782   2954.235107  -36995.18359    407.229919
    1650           0       557.773315   3043.658203  -36995.18359    414.050140
    1651           0       186.833191   3088.698730  -36995.18359    412.827820
    1652           0      3088.698242    186.834564  -36619.27734    366.635040
    1653           0      3043.657715    557.776855  -36619.27734    368.633636
    1654           0      2954.233643    920.581604  -36619.27734    356.524200
    1655           0      2821.731445   1269.960449  -36619.27734    341.486664
    1656           0      2648.082275   1600.820679  -36619.27734    331.974030
    1657           0      2435.817627   1908.339111  -36619.27734    332.226288
    1658           0      2188.030762   2188.032715  -36619.27734    342.426758
    1659           0      1908.336182   2435.819824  -36619.27734    359.828644
    1660           0      1600.816406   2648.084961  -36619.27734    380.347076
    1661           0      1269.955322   2821.733398  -36619.27734    399.730621
    1662           0       920.576782   2954.235107  -36619.27734    414.459534
    1663           0       557.773315   3043.658203  -36619.27734    422.091187
    1664           0       186.833191   3088.698730  -36619.27734    421.261292
    1665           0      3088.698486    186.834564  -36243.37500    382.755310
    1666           0      3043.657715    557.776794  -36243.37500    381.590240
    1667           0      2954.233643    920.581543  -36243.37500    366.441437
    1668           0      2821.731445   1269.960327  -36243.37500    348.900787
    1669           0      2648.082275   1600.820557  -36243.37500    337.543976
    1670           0      2435.817627   1908.339111  -36243.37500    336.754364
    1671           0      2188.030762   2188.032715  -36243.37500    346.587799
    1672           0      1908.336182   2435.819824  -36243.37500    364.283600
    1673           0      1600.816406   2648.084961  -36243.37500    385.580444
    1674           0      1269.955322   2821.733398  -36243.37500    406.020691
    1675           0       920.576782   2954.235107  -36243.37500    421.808655
    1676           0       557.773315   3043.658203  -36243.37500    430.266663
    1677           0       186.833191   3088.698730  -36243.37500    429.828827
    1678           0      3088.698486    186.834534  -35867.46875    398.634521
    1679           0      3043.657715    557.776672  -35867.46875    394.368927
    1680           0      2954.233643    920.581421  -35867.46875    376.293945
    1681           0      2821.731445   1269.960205  -35867.46875    356.188599
    1682           0      2648.082520   1600.820557  -35867.46875    343.080505
    1683           0      2435.817627   1908.339111  -35867.46875    341.216431
    1684           0      2188.030762   2188.032471  -35867.46875    350.687500
    1685           0      1908.336304   2435.819824  -35867.46875    368.634399
    1686           0      1600.816406   2648.084961  -35867.46875    390.683319
    1687           0      1269.955322   2821.733398  -35867.46875    412.136810
    1688           0       920.576782   2954.235107  -35867.46875    428.964722
    1689           0       557.773315   3043.658203  -35867.46875    438.224731
    1690           0       186.833191   3088.698730  -35867.46875    438.177551
    1691           0      3088.698486    186.834503  -35491.57031    415.575592
    1692           0      3043.657715    557.776672  -35491.57031    407.955383
    1693           0      2954.233643    920.581421  -35491.57031    386.523102
    1694           0      2821.731445   1269.960205  -35491.57031    363.800323
    1695           0      2648.082520   1600.820313  -35491.57031    348.875305
    1696           0      2435.817871   1908.338989  -35491.57031    345.984222
    1697           0      2188.030762   2188.032471  -35491.57031    355.135284
    1698           0      1908.336304   2435.819824  -35491.57031    373.471344
    1699           0      1600.816406   2648.084961  -35491.57031    396.382385
    1700           0      1269.955322   2821.733398  -35491.57031    418.985413
    1701           0       920.576721   2954.235107  -35491.57031    436.934967
    1702           0       557.773193   3043.658203  -35491.57031    447.068024
    1703           0       186.833130   3088.698730  -35491.57031    447.423950
    1704           0      3088.698486    186.834473  -35115.66406    429.663239
    1705           0      3043.657715    557.776611  -35115.66406    419.414856
    1706           0      2954.233643    920.581360  -35115.66406    395.190552
    1707           0      2821.731445   1269.960083  -35115.66406    370.181030
    1708           0      2648.082520   1600.820313  -35115.66406    353.721161
    1709           0      2435.817871   1908.338989  -35115.66406    349.758392
    1710           0      2188.030762   2188.032471  -35115.66406    358.527863
    1711           0      1908.336304   2435.819824  -35115.66406    376.970520
    1712           0      1600.816406   2648.084961  -35115.66406    400.500275
    1713           0      1269.955322   2821.733398  -35115.66406    423.945496
    1714           0       920.576599   2954.235107  -35115.66406    442.808624
    1715           0       557.773071   3043.658203  -35115.66406    453.647003
    1716           0       186.833054   3088.698730  -35115.66406    454.367493
    1717           0      3088.698486    186.834473  -34739.75781    450.879364
    1718           0      3043.657715    557.776611  -34739.75781    436.332031
    1719           0      2954.233643    920.581299  -34739.75781    407.674530
    1720           0      2821.731445   1269.959961  -34739.75781    379.786926
    1721           0      2648.082520   1600.820313  -34739.75781    361.146851
    1722           0      2435.817871   1908.338867  -34739.75781    356.162262
    1723           0      2188.030762   2188.032471  -34739.75781    364.711700
    1724           0      1908.336304   2435.819824  -34739.75781    383.834869
    1725           0      1600.816406   2648.084961  -34739.75781    408.556641
    1726           0      1269.955322   2821.733398  -34739.75781    433.501923
    1727           0       920.576538   2954.235107  -34739.75781    453.765503
    1728           0       557.773071   3043.658203  -34739.75781    465.665649
    1729           0       186.833054   3088.698730  -34739.75781    466.850433
    1730           0      3088.698486    186.834442  -34363.85546    462.618408
    1731           0      3043.657715    557.776550  -34363.85546    445.201263
    1732           0      2954.233643    920.581238  -34363.85546    414.708008
    1733           0      2821.731445   1269.959961  -34363.85546    385.078278
    1734           0      2648.082520   1600.820313  -34363.85546    365.255524
    1735           0      2435.817871   1908.338867  -34363.85546    359.378998
    1736           0      2188.030762   2188.032471  -34363.85546    367.524353
    1737           0      1908.336304   2435.819824  -34363.85546    386.641663
    1738           0      1600.816406   2648.084961  -34363.85546    411.744324
    1739           0      1269.955322   2821.733398  -34363.85546    437.294067
    1740           0       920.576538   2954.235107  -34363.85546    458.227600
    1741           0       557.773071   3043.658203  -34363.85546    470.674225
    1742           0       186.833054   3088.698730  -34363.85546    472.145630
    1743           0      3088.698486    186.834427  -33987.95312    464.929840
    1744           0      3043.657715    557.776489  -33987.95312    442.581879
    1745           0      2954.233887    920.581116  -33987.95312    408.840332
    1746           0      2821.731445   1269.959961  -33987.95312    376.998444
    1747           0      2648.082520   1600.820190  -33987.95312    355.667908
    1748           0      2435.817871   1908.338867  -33987.95312    348.575409
    1749           0      2188.030762   2188.032471  -33987.95312    355.900391
    1750           0      1908.336304   2435.819824  -33987.95312    374.511505
    1751           0      1600.816406   2648.084961  -33987.95312    399.497009
    1752           0      1269.955322   2821.733398  -33987.95312    425.204773
    1753           0       920.576538   2954.235107  -33987.95312    446.510986
    1754           0       557.773071   3043.658203  -33987.95312    459.395477
    1755           0       186.833054   3088.698730  -33987.95312    461.286499
    1756           0      -186.835388   3088.698242  -64812.04687     14.027448
    1757           0      -557.778870   3043.657227  -64812.04687     19.782364
    1758           0      -920.584045   2954.232910  -64812.04687     29.035488
    1759           0     -1269.962769   2821.730225  -64812.04687     42.085728
    1760           0     -1600.822876   2648.081055  -64812.04687     56.581177
    1761           0     -1908.340820   2435.816406  -64812.04687     68.974548
    1762           0     -2188.033447   2188.029785  -64812.04687     75.435799
    1763           0     -2435.820068   1908.335938  -64812.04687     73.500847
    1764           0     -2648.084961   1600.816406  -64812.04687     65.837349
    1765           0     -2821.733643   1269.955078  -64812.04687     68.071465
    1766           0     -2954.235107    920.576782  -64812.04687     95.526955
    1767           0     -3043.657959    557.774109  -64812.04687    136.329651
    1768           0     -3088.698730    186.833649  -64812.04687    171.939743
    1769           0      -186.836182   3088.698242  -64436.14062     14.564663
    1770           0      -557.781006   3043.656738  -64436.14062     19.300409
    1771           0      -920.586792   2954.231934  -64436.14062     27.532612
    1772           0     -1269.965332   2821.729004  -64436.14062     39.878658
    1773           0     -1600.825317   2648.079590  -64436.14062     54.082283
    1774           0     -1908.342651   2435.814941  -64436.14062     66.573112
    1775           0     -2188.034668   2188.028809  -64436.14062     73.628334
    1776           0     -2435.820313   1908.335693  -64436.14062     72.798645
    1777           0     -2648.084473   1600.816650  -64436.14062     66.752159
    1778           0     -2821.733398   1269.955322  -64436.14062     69.291916
    1779           0     -2954.234863    920.577759  -64436.14062     94.200439
    1780           0     -3043.657959    557.775696  -64436.14062    131.199356
    1781           0     -3088.698242    186.834366  -64436.14062    162.821671
    1782           0      -186.836182   3088.698242  -64060.24218     15.731479
    1783           0      -557.780945   3043.656738  -64060.24218     19.547352
    1784           0      -920.586670   2954.231934  -64060.24218     26.666782
    1785           0     -1269.965332   2821.729004  -64060.24218     38.172741
    1786           0     -1600.825195   2648.079590  -64060.24218     51.928284
    1787           0     -1908.342529   2435.814941  -64060.24218     64.456505
    1788           0     -2188.034668   2188.028809  -64060.24218     72.018570
    1789           0     -2435.820313   1908.335693  -64060.24218     72.117752
    1790           0     -2648.084473   1600.816650  -64060.24218     66.887238
    1791           0     -2821.733398   1269.955322  -64060.24218     68.679253
    1792           0     -2954.234863    920.577759  -64060.24218     90.409294
    1793           0     -3043.657959    557.775696  -64060.24218    123.902016
    1794           0     -3088.698242    186.834366  -64060.24218    151.633499
    1795           0      -186.836151   3088.698242  -63684.33984     17.139437
    1796           0      -557.780945   3043.656738  -63684.33984     20.197567
    1797           0      -920.586670   2954.231934  -63684.33984     26.148287
    1798           0     -1269.965332   2821.729004  -63684.33984     36.410114
    1799           0     -1600.825195   2648.079590  -63684.33984     49.246708
    1800           0     -1908.342529   2435.814941  -63684.33984     61.389851
    1801           0     -2188.034668   2188.028809  -63684.33984     69.308945
    1802           0     -2435.820313   1908.335693  -63684.33984     70.600494
    1803           0     -2648.084473   1600.816650  -63684.33984     66.987312
    1804           0     -2821.733398   1269.955322  -63684.33984     68.393356
    1805           0     -2954.234863    920.577637  -63684.33984     85.870514
    1806           0     -3043.657959    557.775635  -63684.33984    113.279045
    1807           0     -3088.698242    186.834366  -63684.33984    135.396820
    1808           0      -186.836151   3088.698242  -63308.43359     19.071003
    1809           0      -557.780884   3043.656738  -63308.43359     21.354023
    1810           0      -920.586609   2954.231934  -63308.43359     26.124950
    1811           0     -1269.965210   2821.729004  -63308.43359     35.229877
    1812           0     -1600.825195   2648.079590  -63308.43359     47.313461
    1813           0     -1908.342529   2435.814941  -63308.43359     59.267635
    1814           0     -2188.034668   2188.028809  -63308.43359     67.617157
    1815           0     -2435.820313   1908.335693  -63308.43359     69.895607
    1816           0     -2648.084473   1600.816650  -63308.43359     67.327034
    1817           0     -2821.733398   1269.955322  -63308.43359     68.153412
    1818           0     -2954.234863    920.577515  -63308.43359     82.178452
    1819           0     -3043.657959    557.775452  -63308.43359    104.978897
    1820           0     -3088.698242    186.834290  -63308.43359    122.814362
    1821           0      -186.836121   3088.698242  -62932.53125     21.172548
    1822           0      -557.780823   3043.656738  -62932.53125     22.874338
    1823           0      -920.586548   2954.231934  -62932.53125     26.626177
    1824           0     -1269.965088   2821.729004  -62932.53125     34.485554
    1825           0     -1600.825195   2648.079590  -62932.53125     45.620701
    1826           0     -1908.342407   2435.815186  -62932.53125     57.187790
    1827           0     -2188.034424   2188.028809  -62932.53125     65.830879
    1828           0     -2435.820313   1908.335693  -62932.53125     69.081726
    1829           0     -2648.084473   1600.816650  -62932.53125     67.661598
    1830           0     -2821.733398   1269.955322  -62932.53125     68.073479
    1831           0     -2954.234863    920.577515  -62932.53125     78.455513
    1832           0     -3043.657959    557.775391  -62932.53125     95.978004
    1833           0     -3088.698242    186.834213  -62932.53125    108.770370
    1834           0      -186.836090   3088.698242  -62556.62500     23.551876
    1835           0      -557.780762   3043.656738  -62556.62500     24.774633
    1836           0      -920.586487   2954.231934  -62556.62500     27.630121
    1837           0     -1269.965088   2821.729004  -62556.62500     34.272057
    1838           0     -1600.824951   2648.079590  -62556.62500     44.409836
    1839           0     -1908.342407   2435.815430  -62556.62500     55.543098
    1840           0     -2188.034180   2188.029053  -62556.62500     64.439873
    1841           0     -2435.820313   1908.335693  -62556.62500     68.566940
    1842           0     -2648.084473   1600.816650  -62556.62500     68.140785
    1843           0     -2821.733398   1269.955322  -62556.62500     68.091599
    1844           0     -2954.234863    920.577515  -62556.62500     75.069992
    1845           0     -3043.657959    557.775391  -62556.62500     87.474960
    1846           0     -3088.698242    186.834213  -62556.62500     95.424759
    1847           0      -186.836060   3088.698242  -62180.72656     26.087955
    1848           0      -557.780762   3043.656738  -62180.72656     26.956036
    1849           0      -920.586365   2954.232178  -62180.72656     29.106760
    1850           0     -1269.964966   2821.729004  -62180.72656     34.612972
    1851           0     -1600.824951   2648.079590  -62180.72656     43.683846
    1852           0     -1908.342285   2435.815430  -62180.72656     54.267689
    1853           0     -2188.034180   2188.029053  -62180.72656     63.304985
    1854           0     -2435.820313   1908.335693  -62180.72656     68.219910
    1855           0     -2648.084473   1600.816650  -62180.72656     68.712250
    1856           0     -2821.733398   1269.955322  -62180.72656     68.276802
    1857           0     -2954.234863    920.577515  -62180.72656     72.009460
    1858           0     -3043.657959    557.775391  -62180.72656     79.116692
    1859           0     -3088.698242    186.834213  -62180.72656     82.282364
    1860           0      -186.836060   3088.698242  -61804.82421     28.782007
    1861           0      -557.780640   3043.656738  -61804.82421     29.390995
    1862           0      -920.586304   2954.232178  -61804.82421     31.007469
    1863           0     -1269.964966   2821.729004  -61804.82421     35.507420
    1864           0     -1600.824951   2648.079590  -61804.82421     43.489643
    1865           0     -1908.342285   2435.815430  -61804.82421     53.424545
    1866           0     -2188.034180   2188.029053  -61804.82421     62.500587
    1867           0     -2435.820313   1908.335693  -61804.82421     68.094612
    1868           0     -2648.084473   1600.816650  -61804.82421     69.410728
    1869           0     -2821.733398   1269.955322  -61804.82421     68.626122
    1870           0     -2954.234863    920.577515  -61804.82421     69.319893
    1871           0     -3043.657959    557.775391  -61804.82421     71.093842
    1872           0     -3088.698242    186.834213  -61804.82421     69.799088
    1873           0      -186.836029   3088.698242  -61428.91796     31.600424
    1874           0      -557.780579   3043.656738  -61428.91796     32.029373
    1875           0      -920.586243   2954.232178  -61428.91796     33.274769
    1876           0     -1269.964844   2821.729004  -61428.91796     36.931305
    1877           0     -1600.824829   2648.079590  -61428.91796     43.846489
    1878           0     -1908.342285   2435.815430  -61428.91796     53.038639
    1879           0     -2188.034180   2188.029053  -61428.91796     62.029148
    1880           0     -2435.820313   1908.335693  -61428.91796     68.187675
    1881           0     -2648.084473   1600.816650  -61428.91796     70.234802
    1882           0     -2821.733398   1269.955322  -61428.91796     69.166763
    1883           0     -2954.234863    920.577515  -61428.91796     67.060936
    1884           0     -3043.657959    557.775391  -61428.91796     63.534817
    1885           0     -3088.698242    186.834213  -61428.91796     58.467701
    1886           0      -186.836014   3088.698242  -61053.01171     34.530365
    1887           0      -557.780518   3043.656738  -61053.01171     34.843044
    1888           0      -920.586182   2954.232178  -61053.01171     35.854267
    1889           0     -1269.964844   2821.729004  -61053.01171     38.841816
    1890           0     -1600.824707   2648.079590  -61053.01171     44.752880
    1891           0     -1908.342285   2435.815430  -61053.01171     53.127438
    1892           0     -2188.034180   2188.029053  -61053.01171     61.908730
    1893           0     -2435.820313   1908.335693  -61053.01171     68.505409
    1894           0     -2648.084473   1600.816650  -61053.01171     71.198494
    1895           0     -2821.733398   1269.955322  -61053.01171     69.905144
    1896           0     -2954.234863    920.577515  -61053.01171     65.287811
    1897           0     -3043.657959    557.775330  -61053.01171     56.675022
    1898           0     -3088.698242    186.834213  -61053.01171     49.002354
    1899           0      -186.835999   3088.698242  -60677.10937     37.559654
    1900           0      -557.780518   3043.656738  -60677.10937     37.805214
    1901           0      -920.586121   2954.232178  -60677.10937     38.697525
    1902           0     -1269.964844   2821.729492  -60677.10937     41.183540
    1903           0     -1600.824707   2648.079834  -60677.10937     46.188103
    1904           0     -1908.342285   2435.815430  -60677.10937     53.696957
    1905           0     -2188.034180   2188.029053  -60677.10937     62.143459
    1906           0     -2435.820313   1908.335693  -60677.10937     69.052490
    1907           0     -2648.084473   1600.816650  -60677.10937     72.304352
    1908           0     -2821.733398   1269.955322  -60677.10937     70.855446
    1909           0     -2954.234863    920.577393  -60677.10937     64.060104
    1910           0     -3043.657959    557.775269  -60677.10937     50.820976
    1911           0     -3088.698242    186.834213  -60677.10937     42.567242
    1912           0      -186.835968   3088.698242  -60301.20312     40.679771
    1913           0      -557.780457   3043.656738  -60301.20312     40.897373
    1914           0      -920.586060   2954.232178  -60301.20312     41.762840
    1915           0     -1269.964600   2821.729492  -60301.20312     43.900158
    1916           0     -1600.824707   2648.080078  -60301.20312     48.113667
    1917           0     -1908.342041   2435.815430  -60301.20312     54.738224
    1918           0     -2188.034180   2188.029053  -60301.20312     62.735321
    1919           0     -2435.820313   1908.335693  -60301.20312     69.827301
    1920           0     -2648.084473   1600.816650  -60301.20312     73.559868
    1921           0     -2821.733398   1269.955322  -60301.20312     72.022758
    1922           0     -2954.234863    920.577393  -60301.20312     63.428131
    1923           0     -3043.657959    557.775208  -60301.20312     46.353630
    1924           0     -3088.698242    186.834137  -60301.20312     40.350643
    1925           0      -186.835968   3088.698242  -59925.29687     43.884922
    1926           0      -557.780396   3043.656738  -59925.29687     44.104237
    1927           0      -920.586060   2954.232178  -59925.29687     45.016876
    1928           0     -1269.964600   2821.729492  -59925.29687     46.936749
    1929           0     -1600.824707   2648.080078  -59925.29687     50.482262
    1930           0     -1908.342041   2435.815430  -59925.29687     56.229855
    1931           0     -2188.034180   2188.029297  -59925.29687     63.676533
    1932           0     -2435.820313   1908.335693  -59925.29687     70.829437
    1933           0     -2648.084473   1600.816528  -59925.29687     74.966461
    1934           0     -2821.733398   1269.955322  -59925.29687     73.413956
    1935           0     -2954.234863    920.577393  -59925.29687     63.416786
    1936           0     -3043.657959    557.775146  -59925.29687     43.653690
    1937           0     -3088.698242    186.834076  -59925.29687     42.706284
    1938           0      -186.835938   3088.698242  -59549.39843     47.170601
    1939           0      -557.780396   3043.656738  -59549.39453     47.414547
    1940           0      -920.585938   2954.232178  -59549.39453     48.431980
    1941           0     -1269.964600   2821.729492  -59549.39453     50.244858
    1942           0     -1600.824463   2648.080078  -59549.39453     53.241879
    1943           0     -1908.342041   2435.815430  -59549.39453     58.141224
    1944           0     -2188.034180   2188.029297  -59549.39453     64.954964
    1945           0     -2435.820313   1908.335938  -59549.39843     72.052811
    1946           0     -2648.084717   1600.816528  -59549.39843     76.526054
    1947           0     -2821.733398   1269.955322  -59549.39843     75.027710
    1948           0     -2954.234863    920.577393  -59549.39843     64.025360
    1949           0     -3043.657959    557.775146  -59549.39843     42.966965
    1950           0     -3088.698242    186.834076  -59549.39843     48.659981
    1951           0      -186.835907   3088.698242  -59173.49609     50.534225
    1952           0      -557.780273   3043.656738  -59173.49218     50.819637
    1953           0      -920.585876   2954.232178  -59173.49218     51.985943
    1954           0     -1269.964478   2821.729492  -59173.49218     53.781788
    1955           0     -1600.824341   2648.080078  -59173.49218     56.340759
    1956           0     -1908.342041   2435.815430  -59173.49218     60.435875
    1957           0     -2188.034180   2188.029297  -59173.49609     66.552765
    1958           0     -2435.820313   1908.335938  -59173.49609     73.490479
    1959           0     -2648.084717   1600.816528  -59173.49609     78.237434
    1960           0     -2821.733398   1269.955322  -59173.49609     76.857185
    1961           0     -2954.234863    920.577393  -59173.49609     65.217216
    1962           0     -3043.657959    557.775146  -59173.49609     44.273075
    1963           0     -3088.698242    186.834076  -59173.49609     56.790821
    1964           0      -186.835876   3088.698242  -58797.59375     53.973881
    1965           0      -557.780273   3043.656738  -58797.59375     54.312790
    1966           0      -920.585815   2954.232178  -58797.59375     55.661083
    1967           0     -1269.964478   2821.729492  -58797.59375     57.512070
    1968           0     -1600.824341   2648.080078  -58797.58984     59.729649
    1969           0     -1908.342041   2435.815430  -58797.58984     63.074226
    1970           0     -2188.034180   2188.029297  -58797.58984     68.448914
    1971           0     -2435.820313   1908.335938  -58797.58984     75.132027
    1972           0     -2648.084717   1600.816528  -58797.58984     80.097260
    1973           0     -2821.733398   1269.955322  -58797.58984     78.886719
    1974           0     -2954.234863    920.577393  -58797.58984     66.932838
    1975           0     -3043.657959    557.775146  -58797.58984     47.269032
    1976           0     -3088.698242    186.834076  -58797.58984     66.033112
    1977           0      -186.835876   3088.698242  -58421.68750     57.488506
    1978           0      -557.780212   3043.656738  -58421.69140     57.889153
    1979           0      -920.585693   2954.232178  -58421.69140     59.444073
    1980           0     -1269.964355   2821.729492  -58421.69140     61.405224
    1981           0     -1600.824341   2648.080078  -58421.68750     63.365662
    1982           0     -1908.342041   2435.815430  -58421.68750     66.015831
    1983           0     -2188.034180   2188.029297  -58421.68750     70.618942
    1984           0     -2435.820313   1908.335938  -58421.68750     76.965996
    1985           0     -2648.084717   1600.816528  -58421.68750     82.097198
    1986           0     -2821.733398   1269.955322  -58421.68750     81.095726
    1987           0     -2954.234863    920.577393  -58421.68750     69.089981
    1988           0     -3043.657959    557.775085  -58421.68750     51.524929
    1989           0     -3088.698242    186.834076  -58421.68750     75.733612
    1990           0      -186.835846   3088.698242  -58045.78125     61.077682
    1991           0      -557.780151   3043.656738  -58045.78125     61.544678
    1992           0      -920.585693   2954.232422  -58045.78125     63.321220
    1993           0     -1269.964355   2821.729492  -58045.78125     65.438210
    1994           0     -1600.824341   2648.080078  -58045.78125     67.210495
    1995           0     -1908.341919   2435.815674  -58045.78125     69.222183
    1996           0     -2188.034180   2188.029297  -58045.78125     73.037094
    1997           0     -2435.820313   1908.335938  -58045.78125     78.977715
    1998           0     -2648.084717   1600.816528  -58045.78125     84.227158
    1999           0     -2821.733398   1269.955322  -58045.78125     83.455284
    2000           0     -2954.234863    920.577271  -58045.78125     71.600983
    2001           0     -3043.657959    557.774963  -58045.78125     56.615841
    2002           0     -3088.698242    186.834076  -58045.78125     85.523315
    2003           0      -186.835846   3088.698242  -57669.87890     64.741631
    2004           0      -557.780151   3043.656738  -57669.87890     65.276131
    2005           0      -920.585571   2954.232422  -57669.87890     67.284477
    2006           0     -1269.964355   2821.729492  -57669.87890     69.587685
    2007           0     -1600.824219   2648.080078  -57669.87890     71.230667
    2008           0     -1908.341675   2435.815674  -57669.87890     72.656593
    2009           0     -2188.034180   2188.029297  -57669.87890     75.676468
    2010           0     -2435.820313   1908.335938  -57669.87890     81.151596
    2011           0     -2648.084717   1600.816528  -57669.87890     86.472153
    2012           0     -2821.733398   1269.955322  -57669.87890     85.934113
    2013           0     -2954.234863    920.577271  -57669.87890     74.374519
    2014           0     -3043.657959    557.774963  -57669.87890     62.208069
    2015           0     -3088.698242    186.834076  -57669.87890     95.181007
    2016           0      -186.835815   3088.698242  -57293.97656     68.480888
    2017           0      -557.780029   3043.656738  -57293.97656     69.081955
    2018           0      -920.585571   2954.232422  -57293.97656     71.325874
    2019           0     -1269.964111   2821.729736  -57293.97656     73.838943
    2020           0     -1600.824219   2648.080078  -57293.97656     75.397179
    2021           0     -1908.341675   2435.815674  -57293.97656     76.285957
    2022           0     -2188.034180   2188.029297  -57293.97656     78.510223
    2023           0     -2435.820313   1908.335938  -57293.97656     83.469772
    2024           0     -2648.084717   1600.816528  -57293.97656     88.815247
    2025           0     -2821.733398   1269.955322  -57293.97656     88.496574
    2026           0     -2954.234863    920.577271  -57293.97656     77.327492
    2027           0     -3043.657959    557.774902  -57293.97656     68.052162
    2028           0     -3088.698242    186.834000  -57293.97656    104.577049
    2029           0      -186.835785   3088.698242  -56918.07421     72.296486
    2030           0      -557.779968   3043.656738  -56918.07421     72.960159
    2031           0      -920.585449   2954.232422  -56918.07421     75.438400
    2032           0     -1269.964111   2821.729736  -56918.07421     78.174835
    2033           0     -1600.824219   2648.080078  -56918.07421     79.687874
    2034           0     -1908.341675   2435.815674  -56918.07421     80.079773
    2035           0     -2188.034180   2188.029297  -56918.07421     81.511978
    2036           0     -2435.820313   1908.335938  -56918.07421     85.913704
    2037           0     -2648.084717   1600.816528  -56918.07421     91.236076
    2038           0     -2821.733398   1269.955322  -56918.07421     91.107742
    2039           0     -2954.234863    920.577271  -56918.07421     80.383003
    2040           0     -3043.657959    557.774841  -56918.07421     73.976486
    2041           0     -3088.698242    186.833923  -56918.07421    113.627243
    2042           0      -186.835785   3088.698242  -56542.17187     76.189865
    2043           0      -557.779907   3043.656738  -56542.17187     76.910049
    2044           0      -920.585388   2954.232422  -56542.17187     79.616096
    2045           0     -1269.964111   2821.729736  -56542.17187     82.584511
    2046           0     -1600.824219   2648.080078  -56542.17187     84.078880
    2047           0     -1908.341675   2435.815674  -56542.17187     84.009789
    2048           0     -2188.034180   2188.029297  -56542.17187     84.656319
    2049           0     -2435.820313   1908.335938  -56542.16796     88.463593
    2050           0     -2648.084717   1600.816528  -56542.16796     93.713303
    2051           0     -2821.733398   1269.955322  -56542.16796     93.732132
    2052           0     -2954.234863    920.577271  -56542.16796     83.476906
    2053           0     -3043.657959    557.774841  -56542.16796     79.857147
    2054           0     -3088.698242    186.833923  -56542.16796    122.280235
    2055           0      -186.835754   3088.698242  -56166.26562     80.162323
    2056           0      -557.779907   3043.656738  -56166.26562     80.930824
    2057           0      -920.585327   2954.232422  -56166.26562     83.855202
    2058           0     -1269.964111   2821.729736  -56166.26562     87.056892
    2059           0     -1600.823975   2648.080078  -56166.26562     88.552834
    2060           0     -1908.341675   2435.815674  -56166.26562     88.051025
    2061           0     -2188.033936   2188.029297  -56166.26562     87.918564
    2062           0     -2435.820313   1908.335938  -56166.26562     91.099686
    2063           0     -2648.084717   1600.816528  -56166.26562     96.223877
    2064           0     -2821.733398   1269.955322  -56166.26562     96.337410
    2065           0     -2954.234863    920.577271  -56166.26562     86.553558
    2066           0     -3043.657959    557.774841  -56166.26562     85.609474
    2067           0     -3088.698242    186.833923  -56166.26562    130.501648
    2068           0      -186.835754   3088.698242  -55790.35937     84.215744
    2069           0      -557.779846   3043.656738  -55790.36328     85.022568
    2070           0      -920.585205   2954.232422  -55790.36328     88.151306
    2071           0     -1269.963989   2821.729736  -55790.36328     91.582405
    2072           0     -1600.823975   2648.080078  -55790.36328     93.093170
    2073           0     -1908.341553   2435.815918  -55790.36328     92.180626
    2074           0     -2188.033936   2188.029541  -55790.35937     91.275513
    2075           0     -2435.820313   1908.335938  -55790.35937     93.801888
    2076           0     -2648.084717   1600.816528  -55790.35937     98.745201
    2077           0     -2821.733398   1269.955322  -55790.35937     98.893166
    2078           0     -2954.234863    920.577148  -55790.35937     89.568611
    2079           0     -3043.657959    557.774780  -55790.35937     91.170578
    2080           0     -3088.698242    186.833923  -55790.35937    138.270828
    2081           0      -186.835724   3088.698242  -55414.46093     88.351570
    2082           0      -557.779785   3043.656738  -55414.46093     89.185020
    2083           0      -920.585205   2954.232422  -55414.46093     92.501564
    2084           0     -1269.963867   2821.729736  -55414.46093     96.152718
    2085           0     -1600.823975   2648.080322  -55414.46093     97.684570
    2086           0     -1908.341553   2435.815918  -55414.46093     96.377785
    2087           0     -2188.033936   2188.029541  -55414.45312     94.705696
    2088           0     -2435.820313   1908.335938  -55414.45312     96.550476
    2089           0     -2648.084717   1600.816528  -55414.45312    101.254822
    2090           0     -2821.733398   1269.955322  -55414.45312    101.373055
    2091           0     -2954.234863    920.577148  -55414.45312     92.484802
    2092           0     -3043.657959    557.774658  -55414.45312     96.496956
    2093           0     -3088.698242    186.833923  -55414.45312    145.574722
    2094           0      -186.835693   3088.698242  -55038.55468     92.572105
    2095           0      -557.779663   3043.656738  -55038.55468     93.419197
    2096           0      -920.585144   2954.232422  -55038.55468     96.902878
    2097           0     -1269.963867   2821.729736  -55038.55468    100.760384
    2098           0     -1600.823853   2648.080322  -55038.55468    102.313530
    2099           0     -1908.341553   2435.815918  -55038.55468    100.623322
    2100           0     -2188.033936   2188.029541  -55038.55468     98.189056
    2101           0     -2435.820313   1908.335938  -55038.55468     99.326439
    2102           0     -2648.084717   1600.816528  -55038.55468    103.731613
    2103           0     -2821.733398   1269.955322  -55038.55468    103.754066
    2104           0     -2954.234863    920.577148  -55038.55468     95.273964
    2105           0     -3043.657959    557.774658  -55038.55468    101.555061
    2106           0     -3088.698242    186.833923  -55038.55468    152.406815
    2107           0      -186.835663   3088.698242  -54662.65234     96.878693
    2108           0      -557.779602   3043.656738  -54662.64843     97.725090
    2109           0      -920.585022   2954.232422  -54662.64843    101.353561
    2110           0     -1269.963867   2821.729980  -54662.64843    105.398682
    2111           0     -1600.823730   2648.080566  -54662.64843    106.967308
    2112           0     -1908.341553   2435.815918  -54662.64843    104.899879
    2113           0     -2188.033936   2188.029541  -54662.64843    101.707260
    2114           0     -2435.820313   1908.335938  -54662.65234    102.111839
    2115           0     -2648.084717   1600.816528  -54662.65234    106.155945
    2116           0     -2821.733398   1269.955322  -54662.65234    106.017319
    2117           0     -2954.234863    920.577148  -54662.65234     97.912918
    2118           0     -3043.657959    557.774658  -54662.65234    106.321533
    2119           0     -3088.698242    186.833923  -54662.65234    158.764374
    2120           0      -186.835663   3088.698242  -54286.74609    101.273315
    2121           0      -557.779602   3043.656738  -54286.74609    102.103653
    2122           0      -920.584900   2954.232422  -54286.74609    105.851067
    2123           0     -1269.963623   2821.729980  -54286.74609    110.061195
    2124           0     -1600.823730   2648.080566  -54286.74609    111.634193
    2125           0     -1908.341553   2435.815918  -54286.74609    109.191582
    2126           0     -2188.033936   2188.029541  -54286.74609    105.243530
    2127           0     -2435.820313   1908.335938  -54286.74609    104.889984
    2128           0     -2648.084717   1600.816528  -54286.74609    108.510223
    2129           0     -2821.733398   1269.955322  -54286.74609    108.147339
    2130           0     -2954.234863    920.577148  -54286.74609    100.384621
    2131           0     -3043.657959    557.774658  -54286.74609    110.778351
    2132           0     -3088.698242    186.833923  -54286.74609    164.647842
    2133           0      -186.835632   3088.698242  -53910.84375    105.758873
    2134           0      -557.779541   3043.656738  -53910.84765    106.556038
    2135           0      -920.584900   2954.232422  -53910.84765    110.395432
    2136           0     -1269.963623   2821.729980  -53910.84765    114.742790
    2137           0     -1600.823730   2648.080566  -53910.84765    116.303535
    2138           0     -1908.341553   2435.815918  -53910.84765    113.484535
    2139           0     -2188.033936   2188.029541  -53910.84765    108.783142
    2140           0     -2435.820313   1908.335938  -53910.84375    107.646027
    2141           0     -2648.084717   1600.816528  -53910.84375    110.779472
    2142           0     -2821.733398   1269.955322  -53910.84375    110.132545
    2143           0     -2954.234863    920.577148  -53910.84375    102.676170
    2144           0     -3043.657959    557.774597  -53910.84375    114.913582
    2145           0     -3088.698242    186.833862  -53910.84375    170.060944
    2146           0      -186.835617   3088.698242  -53534.93750    110.335991
    2147           0      -557.779480   3043.656982  -53534.94140    111.083961
    2148           0      -920.584839   2954.232422  -53534.94140    114.984856
    2149           0     -1269.963623   2821.729980  -53534.94140    119.437523
    2150           0     -1600.823730   2648.080566  -53534.94140    120.964989
    2151           0     -1908.341431   2435.815918  -53534.94140    117.765038
    2152           0     -2188.033936   2188.029541  -53534.93750    112.312149
    2153           0     -2435.820313   1908.335938  -53534.93750    110.366035
    2154           0     -2648.084717   1600.816528  -53534.93750    112.950531
    2155           0     -2821.733398   1269.955322  -53534.93750    111.963982
    2156           0     -2954.234863    920.577148  -53534.93750    104.778351
    2157           0     -3043.657959    557.774536  -53534.93750    118.717361
    2158           0     -3088.698242    186.833786  -53534.93750    175.006668
    2159           0      -186.835602   3088.698242  -53159.03906    115.006737
    2160           0      -557.779419   3043.656982  -53159.03906    115.686821
    2161           0      -920.584717   2954.232422  -53159.03906    119.616302
    2162           0     -1269.963501   2821.729980  -53159.03906    124.139488
    2163           0     -1600.823730   2648.080566  -53159.03906    125.608452
    2164           0     -1908.341309   2435.815918  -53159.03906    122.020668
    2165           0     -2188.033691   2188.029541  -53159.03906    115.818069
    2166           0     -2435.820313   1908.335938  -53159.03906    113.037956
    2167           0     -2648.084717   1600.816528  -53159.03906    115.012520
    2168           0     -2821.733398   1269.955322  -53159.03906    113.636169
    2169           0     -2954.234863    920.577026  -53159.03906    106.684540
    2170           0     -3043.657959    557.774475  -53159.03906    122.183266
    2171           0     -3088.698242    186.833786  -53159.03906    179.490173
    2172           0      -186.835571   3088.698242  -52783.13281    119.772758
    2173           0      -557.779419   3043.657227  -52783.13281    120.366699
    2174           0      -920.584717   2954.232910  -52783.13281    124.290817
    2175           0     -1269.963501   2821.729980  -52783.13281    128.844513
    2176           0     -1600.823486   2648.080566  -52783.13281    130.226044
    2177           0     -1908.341309   2435.815918  -52783.13281    126.241478
    2178           0     -2188.033691   2188.029541  -52783.13281    119.290833
    2179           0     -2435.820313   1908.335938  -52783.13281    115.652054
    2180           0     -2648.084717   1600.816528  -52783.13281    116.958199
    2181           0     -2821.733398   1269.955322  -52783.13281    115.145966
    2182           0     -2954.234863    920.577026  -52783.13281    108.392021
    2183           0     -3043.657959    557.774414  -52783.13281    125.308083
    2184           0     -3088.698242    186.833786  -52783.13281    183.517822
    2185           0      -186.835571   3088.698242  -52407.22656    124.635971
    2186           0      -557.779297   3043.657227  -52407.22656    125.125420
    2187           0      -920.584656   2954.232910  -52407.22656    129.007294
    2188           0     -1269.963379   2821.729980  -52407.22656    133.548660
    2189           0     -1600.823486   2648.080566  -52407.22656    134.809296
    2190           0     -1908.341309   2435.815918  -52407.22656    130.417999
    2191           0     -2188.033691   2188.029541  -52407.22656    122.721397
    2192           0     -2435.820068   1908.335938  -52407.23046    118.200439
    2193           0     -2648.084717   1600.816528  -52407.23046    118.781990
    2194           0     -2821.733398   1269.955322  -52407.23046    116.493324
    2195           0     -2954.234863    920.577026  -52407.23046    109.899773
    2196           0     -3043.657959    557.774414  -52407.23046    128.090347
    2197           0     -3088.698242    186.833786  -52407.23046    187.096420
    2198           0      -186.835541   3088.698242  -52031.32421    129.597305
    2199           0      -557.779236   3043.657227  -52031.32421    129.963165
    2200           0      -920.584534   2954.232910  -52031.32421    133.765701
    2201           0     -1269.963379   2821.729980  -52031.32421    138.247803
    2202           0     -1600.823486   2648.080566  -52031.32421    139.352036
    2203           0     -1908.341309   2435.815918  -52031.32421    134.542175
    2204           0     -2188.033691   2188.029541  -52031.32421    126.102081
    2205           0     -2435.820068   1908.335938  -52031.32812    120.676819
    2206           0     -2648.084717   1600.816528  -52031.32812    120.480820
    2207           0     -2821.733398   1269.955322  -52031.32812    117.680138
    2208           0     -2954.234863    920.577026  -52031.32812    111.208847
    2209           0     -3043.657959    557.774414  -52031.32812    130.530441
    2210           0     -3088.698242    186.833786  -52031.32812    190.233749
    2211           0      -186.835541   3088.698242  -51655.42187    134.658401
    2212           0      -557.779236   3043.657227  -51655.42187    134.881714
    2213           0      -920.584473   2954.232910  -51655.42187    138.565231
    2214           0     -1269.963379   2821.729980  -51655.42187    142.939072
    2215           0     -1600.823364   2648.080566  -51655.42187    143.847031
    2216           0     -1908.341309   2435.816162  -51655.42187    138.606522
    2217           0     -2188.033691   2188.029785  -51655.42187    129.426468
    2218           0     -2435.820068   1908.335938  -51655.42187    123.077011
    2219           0     -2648.084717   1600.816528  -51655.42187    122.054230
    2220           0     -2821.733398   1269.955322  -51655.42187    118.710266
    2221           0     -2954.234863    920.577026  -51655.42187    112.322426
    2222           0     -3043.657959    557.774414  -51655.42187    132.630234
    2223           0     -3088.698242    186.833786  -51655.42187    192.935974
    2224           0      -186.835510   3088.698242  -51279.51562    139.820175
    2225           0      -557.779175   3043.657227  -51279.51562    139.881256
    2226           0      -920.584412   2954.232910  -51279.51562    143.406036
    2227           0     -1269.963257   2821.729980  -51279.51562    147.619202
    2228           0     -1600.823364   2648.080566  -51279.51562    148.289627
    2229           0     -1908.341309   2435.816162  -51279.51562    142.605087
    2230           0     -2188.033691   2188.029785  -51279.51562    132.689240
    2231           0     -2435.820068   1908.335938  -51279.51562    125.398506
    2232           0     -2648.084717   1600.816528  -51279.51562    123.503372
    2233           0     -2821.733398   1269.955322  -51279.51562    119.589706
    2234           0     -2954.234863    920.577026  -51279.51562    113.245361
    2235           0     -3043.657959    557.774414  -51279.51562    134.393219
    2236           0     -3088.698242    186.833786  -51279.51562    195.210800
    2237           0      -186.835480   3088.698242  -50903.60937    145.083435
    2238           0      -557.779114   3043.657227  -50903.60937    144.962799
    2239           0      -920.584351   2954.232910  -50903.60937    148.288269
    2240           0     -1269.963135   2821.729980  -50903.60937    152.287369
    2241           0     -1600.823364   2648.080566  -50903.60937    152.676178
    2242           0     -1908.341064   2435.816406  -50903.60937    146.531448
    2243           0     -2188.033691   2188.029785  -50903.60937    135.887161
    2244           0     -2435.820068   1908.335938  -50903.61718    127.640221
    2245           0     -2648.084717   1600.816528  -50903.61718    124.832558
    2246           0     -2821.733398   1269.955322  -50903.61718    120.325851
    2247           0     -2954.234863    920.577026  -50903.61718    113.984566
    2248           0     -3043.657959    557.774292  -50903.61718    135.824387
    2249           0     -3088.698242    186.833710  -50903.61718    197.065521
    2250           0      -186.835449   3088.698242  -50527.71093    150.448746
    2251           0      -557.779053   3043.657227  -50527.70703    150.127151
    2252           0      -920.584229   2954.232910  -50527.70703    153.211334
    2253           0     -1269.963135   2821.729980  -50527.70703    156.940964
    2254           0     -1600.823242   2648.080811  -50527.70703    157.000961
    2255           0     -1908.340942   2435.816406  -50527.70703    150.383667
    2256           0     -2188.033691   2188.029785  -50527.71093    139.018372
    2257           0     -2435.820068   1908.335938  -50527.71093    129.803314
    2258           0     -2648.084717   1600.816528  -50527.71093    126.046623
    2259           0     -2821.733398   1269.955322  -50527.71093    120.928177
    2260           0     -2954.234863    920.576904  -50527.71093    114.548256
    2261           0     -3043.657959    557.774170  -50527.71093    136.930115
    2262           0     -3088.698242    186.833633  -50527.71093    198.507370
    2263           0      -186.835449   3088.698242  -50151.80468    155.916412
    2264           0      -557.778992   3043.657227  -50151.80078    155.374878
    2265           0      -920.584229   2954.232910  -50151.80078    158.175507
    2266           0     -1269.963013   2821.729980  -50151.80078    161.578293
    2267           0     -1600.823120   2648.080811  -50151.80078    161.264053
    2268           0     -1908.340942   2435.816406  -50151.80468    154.157120
    2269           0     -2188.033691   2188.029785  -50151.80468    142.076538
    2270           0     -2435.820068   1908.335938  -50151.80468    131.890915
    2271           0     -2648.084717   1600.816528  -50151.80468    127.153702
    2272           0     -2821.733398   1269.955322  -50151.80468    121.407745
    2273           0     -2954.235107    920.576904  -50151.80468    114.946548
    2274           0     -3043.657959    557.774109  -50151.80859    137.718384
    2275           0     -3088.698242    186.833633  -50151.80859    199.543671
    2276           0      -186.835419   3088.698242  -49775.90234    161.486954
    2277           0      -557.778931   3043.657227  -49775.90234    160.706055
    2278           0      -920.584106   2954.232910  -49775.90234    163.181030
    2279           0     -1269.962891   2821.729980  -49775.90234    166.200668
    2280           0     -1600.822998   2648.080811  -49775.90234    165.462433
    2281           0     -1908.340942   2435.816406  -49775.90234    157.848953
    2282           0     -2188.033691   2188.029785  -49775.90234    145.066193
    2283           0     -2435.820068   1908.335938  -49775.90234    133.906052
    2284           0     -2648.084717   1600.816528  -49775.90234    128.161316
    2285           0     -2821.733398   1269.955322  -49775.90234    121.776962
    2286           0     -2954.235107    920.576904  -49775.90234    115.191765
    2287           0     -3043.657959    557.774109  -49775.90234    138.198608
    2288           0     -3088.698242    186.833633  -49775.90234    200.182678
    2289           0      -186.835388   3088.698242  -49400.00000    167.160034
    2290           0      -557.778870   3043.657227  -49400.00000    166.120850
    2291           0      -920.584106   2954.232910  -49400.00000    168.228668
    2292           0     -1269.962891   2821.729980  -49400.00000    170.806824
    2293           0     -1600.822998   2648.080811  -49400.00000    169.596558
    2294           0     -1908.340942   2435.816406  -49400.00000    161.459671
    2295           0     -2188.033691   2188.029785  -49400.00000    147.981995
    2296           0     -2435.820068   1908.335938  -49399.99609    135.853577
    2297           0     -2648.084717   1600.816528  -49400.00000    129.084503
    2298           0     -2821.733398   1269.955200  -49400.00000    122.048363
    2299           0     -2954.235352    920.576782  -49400.00000    115.298676
    2300           0     -3043.657959    557.774109  -49400.00000    138.382568
    2301           0     -3088.698242    186.833633  -49400.00000    200.431519
    2302           0      -186.835388   3088.698242  -49024.09375    172.935516
    2303           0      -557.778870   3043.657227  -49024.09375    171.618774
    2304           0      -920.584045   2954.232910  -49024.09375    173.318665
    2305           0     -1269.962891   2821.730225  -49024.09375    175.398407
    2306           0     -1600.822998   2648.081055  -49024.09375    173.665558
    2307           0     -1908.340942   2435.816406  -49024.09375    164.986938
    2308           0     -2188.033447   2188.029785  -49024.09375    150.827911
    2309           0     -2435.820068   1908.335938  -49024.09375    137.738022
    2310           0     -2648.084961   1600.816406  -49024.09375    129.935379
    2311           0     -2821.733643   1269.955078  -49024.09765    122.238258
    2312           0     -2954.235352    920.576782  -49024.09765    115.283020
    2313           0     -3043.657959    557.774109  -49024.09765    138.283432
    2314           0     -3088.698242    186.833633  -49024.09765    200.298843
    2315           0      -186.835358   3088.698242  -48648.18750    178.812180
    2316           0      -557.778809   3043.657227  -48648.18359    177.200592
    2317           0      -920.583984   2954.232910  -48648.18750    178.451675
    2318           0     -1269.962646   2821.730225  -48648.18750    179.976791
    2319           0     -1600.822998   2648.081055  -48648.18750    177.670380
    2320           0     -1908.340820   2435.816406  -48648.18750    168.431534
    2321           0     -2188.033447   2188.029785  -48648.18750    153.606567
    2322           0     -2435.820068   1908.335938  -48648.18750    139.568863
    2323           0     -2648.084961   1600.816406  -48648.18750    130.721649
    2324           0     -2821.733643   1269.955078  -48648.18750    122.366142
    2325           0     -2954.235352    920.576782  -48648.18750    115.162056
    2326           0     -3043.657959    557.774109  -48648.19140    137.917191
    2327           0     -3088.698242    186.833633  -48648.19140    199.793350
    2328           0      -186.835358   3088.698242  -48272.28906    184.789642
    2329           0      -557.778809   3043.657227  -48272.28515    182.863998
    2330           0      -920.583923   2954.232910  -48272.28515    183.628189
    2331           0     -1269.962646   2821.730225  -48272.28906    184.543320
    2332           0     -1600.822754   2648.081055  -48272.28906    181.613724
    2333           0     -1908.340820   2435.816406  -48272.28906    171.794922
    2334           0     -2188.033447   2188.029785  -48272.28906    156.315674
    2335           0     -2435.820068   1908.335938  -48272.28906    141.353394
    2336           0     -2648.084961   1600.816406  -48272.28906    131.464447
    2337           0     -2821.733643   1269.955078  -48272.28906    122.448120
    2338           0     -2954.235352    920.576660  -48272.28906    114.957893
    2339           0     -3043.657959    557.774048  -48272.28906    137.301895
    2340           0     -3088.698242    186.833633  -48272.28906    198.924240
    2341           0      -186.835327   3088.698242  -47896.38671    190.865799
    2342           0      -557.778687   3043.657227  -47896.38281    188.609589
    2343           0      -920.583862   2954.232910  -47896.38281    188.848175
    2344           0     -1269.962646   2821.730225  -47896.38281    189.099548
    2345           0     -1600.822754   2648.081055  -47896.38671    185.498428
    2346           0     -1908.340698   2435.816406  -47896.38671    175.077744
    2347           0     -2188.033203   2188.029785  -47896.38671    158.960953
    2348           0     -2435.820068   1908.335938  -47896.38671    143.100235
    2349           0     -2648.084961   1600.816406  -47896.38671    132.177460
    2350           0     -2821.733643   1269.955078  -47896.38671    122.504265
    2351           0     -2954.235352    920.576660  -47896.38671    114.693535
    2352           0     -3043.657959    557.773926  -47896.38671    136.458832
    2353           0     -3088.698242    186.833557  -47896.38671    197.702499
    2354           0      -186.835297   3088.698242  -47520.47656    197.042877
    2355           0      -557.778625   3043.657227  -47520.47656    194.436005
    2356           0      -920.583801   2954.232910  -47520.47656    194.111832
    2357           0     -1269.962646   2821.730469  -47520.48046    193.650681
    2358           0     -1600.822754   2648.081055  -47520.48046    189.327957
    2359           0     -1908.340576   2435.816406  -47520.48046    178.283173
    2360           0     -2188.033203   2188.029785  -47520.48046    161.543152
    2361           0     -2435.820068   1908.335938  -47520.48046    144.818008
    2362           0     -2648.084961   1600.816406  -47520.48046    132.879517
    2363           0     -2821.733643   1269.955078  -47520.48046    122.556198
    2364           0     -2954.235352    920.576660  -47520.48437    114.394867
    2365           0     -3043.657959    557.773865  -47520.48437    135.412445
    2366           0     -3088.698242    186.833496  -47520.48437    196.139816
    2367           0      -186.835266   3088.698242  -47144.57812    203.317032
    2368           0      -557.778564   3043.657227  -47144.57812    200.341202
    2369           0      -920.583740   2954.232910  -47144.57812    199.421112
    2370           0     -1269.962524   2821.730469  -47144.57812    198.198700
    2371           0     -1600.822632   2648.081055  -47144.57812    193.106598
    2372           0     -1908.340576   2435.816406  -47144.57812    181.413986
    2373           0     -2188.033203   2188.029785  -47144.57812    164.067017
    2374           0     -2435.820068   1908.335938  -47144.57812    146.515701
    2375           0     -2648.084961   1600.816406  -47144.57812    133.587479
    2376           0     -2821.733643   1269.955078  -47144.57812    122.627052
    2377           0     -2954.235352    920.576660  -47144.57812    114.090134
    2378           0     -3043.657959    557.773865  -47144.57812    134.191269
    2379           0     -3088.698242    186.833496  -47144.57812    194.249695
    2380           0      -186.835266   3088.698242  -46768.67968    209.684952
    2381           0      -557.778503   3043.657227  -46768.68359    206.326294
    2382           0      -920.583618   2954.232910  -46768.68359    204.774963
    2383           0     -1269.962402   2821.730469  -46768.68359    202.743439
    2384           0     -1600.822510   2648.081055  -46768.67968    196.838577
    2385           0     -1908.340576   2435.816406  -46768.67968    184.474823
    2386           0     -2188.033203   2188.029785  -46768.67968    166.534790
    2387           0     -2435.820068   1908.335938  -46768.67968    148.202454
    2388           0     -2648.084961   1600.816406  -46768.67968    134.320724
    2389           0     -2821.733643   1269.955078  -46768.67968    122.740761
    2390           0     -2954.235352    920.576660  -46768.67968    113.810349
    2391           0     -3043.657959    557.773865  -46768.67187    132.828064
    2392           0     -3088.698242    186.833496  -46768.67187    192.048203
    2393           0      -186.835236   3088.698242  -46392.77343    216.147903
    2394           0      -557.778503   3043.657227  -46392.77343    212.388275
    2395           0      -920.583557   2954.232910  -46392.77343    210.173492
    2396           0     -1269.962402   2821.730469  -46392.77343    207.291183
    2397           0     -1600.822510   2648.081055  -46392.77343    200.528793
    2398           0     -1908.340576   2435.816406  -46392.77343    187.469452
    2399           0     -2188.033203   2188.029785  -46392.77343    168.952118
    2400           0     -2435.820068   1908.335938  -46392.76953    149.886520
    2401           0     -2648.084961   1600.816406  -46392.76953    135.097290
    2402           0     -2821.733643   1269.955078  -46392.76953    122.922745
    2403           0     -2954.235352    920.576660  -46392.76953    113.589081
    2404           0     -3043.657959    557.773865  -46392.76953    131.360458
    2405           0     -3088.698242    186.833496  -46392.76953    189.553986
    2406           0      -186.835220   3088.698242  -46016.86718    222.702591
    2407           0      -557.778442   3043.657227  -46016.86328    218.527039
    2408           0      -920.583496   2954.232910  -46016.86718    215.619553
    2409           0     -1269.962402   2821.730469  -46016.86718    211.844681
    2410           0     -1600.822510   2648.081055  -46016.86718    204.182297
    2411           0     -1908.340576   2435.816406  -46016.86718    190.404449
    2412           0     -2188.033203   2188.029785  -46016.86718    171.321304
    2413           0     -2435.819824   1908.336060  -46016.86718    151.577103
    2414           0     -2648.084961   1600.816406  -46016.86718    135.936050
    2415           0     -2821.733643   1269.955078  -46016.86718    123.199120
    2416           0     -2954.235352    920.576660  -46016.86718    113.462067
    2417           0     -3043.657959    557.773865  -46016.86718    129.831390
    2418           0     -3088.698242    186.833496  -46016.86718    186.789230
    2419           0      -186.835205   3088.698242  -45640.96484    229.348541
    2420           0      -557.778320   3043.657227  -45640.96484    224.738693
    2421           0      -920.583435   2954.232910  -45640.96484    221.110580
    2422           0     -1269.962280   2821.730469  -45640.96484    216.405869
    2423           0     -1600.822510   2648.081299  -45640.96484    207.806534
    2424           0     -1908.340576   2435.816650  -45640.96484    193.285858
    2425           0     -2188.033203   2188.030029  -45640.96484    173.649323
    2426           0     -2435.819824   1908.336182  -45640.96484    153.280762
    2427           0     -2648.084961   1600.816406  -45640.96484    136.854843
    2428           0     -2821.733643   1269.955078  -45640.96484    123.596283
    2429           0     -2954.235352    920.576538  -45640.96484    113.467209
    2430           0     -3043.657959    557.773804  -45640.96484    128.289734
    2431           0     -3088.698242    186.833496  -45640.96484    183.780548
    2432           0      -186.835175   3088.698242  -45265.06250    236.083054
    2433           0      -557.778320   3043.657227  -45265.06640    231.023911
    2434           0      -920.583374   2954.232910  -45265.06640    226.644699
    2435           0     -1269.962158   2821.730469  -45265.06250    220.978958
    2436           0     -1600.822388   2648.081299  -45265.06250    211.407639
    2437           0     -1908.340576   2435.816650  -45265.06250    196.116714
    2438           0     -2188.033203   2188.030029  -45265.06250    175.937195
    2439           0     -2435.819824   1908.336182  -45265.06250    155.007111
    2440           0     -2648.084961   1600.816406  -45265.06250    137.870453
    2441           0     -2821.733643   1269.955078  -45265.06250    124.140930
    2442           0     -2954.235352    920.576538  -45265.06250    113.643234
    2443           0     -3043.657959    557.773682  -45265.06250    126.790451
    2444           0     -3088.698242    186.833496  -45265.05859    180.559769
    2445           0      -186.835175   3088.698242  -44889.15625    242.904800
    2446           0      -557.778259   3043.657227  -44889.16015    237.379166
    2447           0      -920.583313   2954.232910  -44889.16015    232.225266
    2448           0     -1269.962158   2821.730469  -44889.16015    225.566696
    2449           0     -1600.822388   2648.081299  -44889.16015    214.989532
    2450           0     -1908.340332   2435.816895  -44889.16015    198.905563
    2451           0     -2188.033203   2188.030273  -44889.15625    178.193588
    2452           0     -2435.819824   1908.336182  -44889.15625    156.761978
    2453           0     -2648.084961   1600.816406  -44889.15625    138.998489
    2454           0     -2821.733643   1269.955078  -44889.15625    124.859192
    2455           0     -2954.235352    920.576538  -44889.15625    114.030266
    2456           0     -3043.658203    557.773621  -44889.15625    125.394859
    2457           0     -3088.698486    186.833420  -44889.15625    177.165451
    2458           0      -186.835144   3088.698242  -44513.25000    249.811523
    2459           0      -557.778198   3043.657227  -44513.25390    243.804825
    2460           0      -920.583252   2954.232910  -44513.25390    237.849457
    2461           0     -1269.962158   2821.730469  -44513.25390    230.169876
    2462           0     -1600.822266   2648.081299  -44513.25390    218.559158
    2463           0     -1908.340210   2435.816895  -44513.25390    201.660965
    2464           0     -2188.033203   2188.030273  -44513.25390    180.422302
    2465           0     -2435.819824   1908.336182  -44513.25390    158.548172
    2466           0     -2648.084961   1600.816406  -44513.25390    140.253784
    2467           0     -2821.733643   1269.955078  -44513.25000    125.775345
    2468           0     -2954.235352    920.576538  -44513.25000    114.668037
    2469           0     -3043.658203    557.773560  -44513.25000    124.169968
    2470           0     -3088.698730    186.833344  -44513.25000    173.643204
    2471           0      -186.835144   3088.698242  -44137.35156    256.802277
    2472           0      -557.778137   3043.657227  -44137.34765    250.297897
    2473           0      -920.583252   2954.232910  -44137.34765    243.519302
    2474           0     -1269.962036   2821.730469  -44137.34765    234.792328
    2475           0     -1600.822266   2648.081299  -44137.34765    222.120682
    2476           0     -1908.340210   2435.816895  -44137.34765    204.389099
    2477           0     -2188.033203   2188.030273  -44137.34765    182.630615
    2478           0     -2435.819824   1908.336182  -44137.35156    160.373581
    2479           0     -2648.084961   1600.816406  -44137.35156    141.646957
    2480           0     -2821.733643   1269.955078  -44137.35156    126.913078
    2481           0     -2954.235352    920.576538  -44137.35156    115.593887
    2482           0     -3043.658203    557.773560  -44137.35156    123.188332
    2483           0     -3088.698730    186.833344  -44137.35156    170.047882
    2484           0      -186.835114   3088.698242  -43761.44531    263.876129
    2485           0      -557.778137   3043.657227  -43761.44140    256.860596
    2486           0      -920.583069   2954.233154  -43761.44140    249.232742
    2487           0     -1269.961914   2821.730469  -43761.44140    239.433411
    2488           0     -1600.822144   2648.081543  -43761.44140    225.682007
    2489           0     -1908.340210   2435.816895  -43761.44140    207.096878
    2490           0     -2188.033203   2188.030273  -43761.44140    184.819046
    2491           0     -2435.819824   1908.336182  -43761.44140    162.240891
    2492           0     -2648.084961   1600.816406  -43761.44140    143.187363
    2493           0     -2821.733643   1269.955078  -43761.44140    128.292816
    2494           0     -2954.235352    920.576538  -43761.44140    116.844009
    2495           0     -3043.658203    557.773560  -43761.44140    122.525803
    2496           0     -3088.698730    186.833344  -43761.44531    166.446548
    2497           0      -186.835083   3088.698242  -43385.53515    271.028290
    2498           0      -557.778015   3043.657227  -43385.53125    263.487030
    2499           0      -920.583008   2954.233154  -43385.53125    254.988480
    2500           0     -1269.961914   2821.730469  -43385.53125    244.097855
    2501           0     -1600.822021   2648.081543  -43385.53125    229.245636
    2502           0     -1908.340210   2435.816895  -43385.53515    209.790680
    2503           0     -2188.033203   2188.030273  -43385.53515    187.001877
    2504           0     -2435.819824   1908.336182  -43385.53906    164.154648
    2505           0     -2648.084961   1600.816406  -43385.53906    144.881775
    2506           0     -2821.733643   1269.955078  -43385.53906    129.931091
    2507           0     -2954.235352    920.576538  -43385.53906    118.450554
    2508           0     -3043.658203    557.773560  -43385.54296    122.260117
    2509           0     -3088.698730    186.833344  -43385.54296    162.913925
    2510           0      -186.835052   3088.698242  -43009.63281    278.257324
    2511           0      -557.777954   3043.657227  -43009.62500    270.176544
    2512           0      -920.582947   2954.233154  -43009.62890    260.788727
    2513           0     -1269.961792   2821.730713  -43009.63281    248.784500
    2514           0     -1600.822021   2648.081543  -43009.63281    232.813492
    2515           0     -1908.340210   2435.816895  -43009.63281    212.477112
    2516           0     -2188.033203   2188.030273  -43009.63281    189.178619
    2517           0     -2435.819824   1908.336182  -43009.63671    166.115341
    2518           0     -2648.084961   1600.816406  -43009.63671    146.733292
    2519           0     -2821.733643   1269.955078  -43009.63671    131.840759
    2520           0     -2954.235352    920.576416  -43009.63671    120.439308
    2521           0     -3043.658203    557.773499  -43009.64062    122.467735
    2522           0     -3088.698730    186.833344  -43009.64062    159.543396
    2523           0      -186.835052   3088.698242  -42633.73437    285.562439
    2524           0      -557.777954   3043.657227  -42633.73437    276.929352
    2525           0      -920.582886   2954.233154  -42633.73437    266.632660
    2526           0     -1269.961670   2821.730713  -42633.73437    253.495865
    2527           0     -1600.822021   2648.081543  -42633.73046    236.391647
    2528           0     -1908.340210   2435.816895  -42633.73046    215.162476
    2529           0     -2188.033203   2188.030273  -42633.73046    191.358109
    2530           0     -2435.819824   1908.336182  -42633.73437    168.126785
    2531           0     -2648.084961   1600.816406  -42633.73437    148.743073
    2532           0     -2821.733643   1269.955078  -42633.73437    134.029816
    2533           0     -2954.235352    920.576294  -42633.73437    122.831932
    2534           0     -3043.658203    557.773376  -42633.73437    123.220131
    2535           0     -3088.698730    186.833344  -42633.73437    156.437729
    2536           0      -186.835022   3088.698242  -42257.83203    292.942322
    2537           0      -557.777893   3043.657227  -42257.83593    283.744934
    2538           0      -920.582825   2954.233154  -42257.83593    272.518585
    2539           0     -1269.961670   2821.730713  -42257.83593    258.233734
    2540           0     -1600.822021   2648.081543  -42257.83593    239.983353
    2541           0     -1908.340088   2435.816895  -42257.83593    217.852249
    2542           0     -2188.033203   2188.030273  -42257.83593    193.545517
    2543           0     -2435.819824   1908.336182  -42257.83593    170.189407
    2544           0     -2648.084961   1600.816406  -42257.83593    150.909210
    2545           0     -2821.733643   1269.955078  -42257.82812    136.501907
    2546           0     -2954.235352    920.576294  -42257.82812    125.641907
    2547           0     -3043.658203    557.773376  -42257.82812    124.580856
    2548           0     -3088.698730    186.833344  -42257.82812    153.713852
    2549           0      -186.835007   3088.698242  -41881.92968    300.394592
    2550           0      -557.777832   3043.657227  -41881.92578    290.619904
    2551           0      -920.582764   2954.233398  -41881.92578    278.449829
    2552           0     -1269.961670   2821.730713  -41881.92578    262.999451
    2553           0     -1600.821777   2648.081543  -41881.92578    243.590195
    2554           0     -1908.340088   2435.816895  -41881.92578    220.550674
    2555           0     -2188.033203   2188.030273  -41881.92578    195.746002
    2556           0     -2435.819824   1908.336182  -41881.92578    172.305725
    2557           0     -2648.084961   1600.816406  -41881.92578    153.227097
    2558           0     -2821.733643   1269.955078  -41881.92578    139.254562
    2559           0     -2954.235352    920.576294  -41881.92578    128.876404
    2560           0     -3043.658203    557.773376  -41881.92968    126.600426
    2561           0     -3088.698730    186.833344  -41881.92968    151.500595
    2562           0      -186.834991   3088.698242  -41506.02343    307.917725
    2563           0      -557.777771   3043.657227  -41506.01953    297.557098
    2564           0      -920.582764   2954.233398  -41506.01953    284.420898
    2565           0     -1269.961548   2821.730713  -41506.01953    267.790771
    2566           0     -1600.821777   2648.081543  -41506.01953    247.216324
    2567           0     -1908.340088   2435.816895  -41506.01953    223.263596
    2568           0     -2188.033203   2188.030273  -41506.02343    197.964981
    2569           0     -2435.819824   1908.336182  -41506.02343    174.475388
    2570           0     -2648.084961   1600.816406  -41506.02343    155.690674
    2571           0     -2821.733643   1269.955078  -41506.02343    142.281021
    2572           0     -2954.235352    920.576294  -41506.02734    132.533478
    2573           0     -3043.658203    557.773315  -41506.02734    129.316269
    2574           0     -3088.698730    186.833282  -41506.02734    149.932816
    2575           0      -186.834961   3088.698242  -41130.12109    315.508820
    2576           0      -557.777710   3043.657227  -41130.12109    304.551361
    2577           0      -920.582581   2954.233398  -41130.12500    290.440826
    2578           0     -1269.961426   2821.730713  -41130.12109    272.614960
    2579           0     -1600.821777   2648.081543  -41130.12109    250.861710
    2580           0     -1908.339966   2435.817139  -41130.12109    225.991074
    2581           0     -2188.033203   2188.030273  -41130.12109    200.205139
    2582           0     -2435.819824   1908.336182  -41130.12109    176.701019
    2583           0     -2648.084961   1600.816406  -41130.12109    158.291641
    2584           0     -2821.733643   1269.955078  -41130.12109    145.568863
    2585           0     -2954.235352    920.576294  -41130.12109    136.605377
    2586           0     -3043.658203    557.773254  -41130.12109    132.746216
    2587           0     -3088.698730    186.833206  -41130.12109    149.149292
    2588           0      -186.834961   3088.698242  -40754.21875    323.166931
    2589           0      -557.777649   3043.657227  -40754.22656    311.608795
    2590           0      -920.582581   2954.233398  -40754.22656    296.501373
    2591           0     -1269.961426   2821.730957  -40754.22656    277.467377
    2592           0     -1600.821655   2648.081543  -40754.22656    254.533646
    2593           0     -1908.339844   2435.817139  -40754.22265    228.738876
    2594           0     -2188.032959   2188.030273  -40754.21875    202.472321
    2595           0     -2435.819824   1908.336182  -40754.21875    178.980652
    2596           0     -2648.084961   1600.816406  -40754.21875    161.021301
    2597           0     -2821.733643   1269.955078  -40754.21875    149.102524
    2598           0     -2954.235352    920.576294  -40754.21875    141.074722
    2599           0     -3043.658203    557.773254  -40754.21875    136.895432
    2600           0     -3088.698730    186.833206  -40754.21875    149.277649
    2601           0      -186.834930   3088.698242  -40378.31640    330.889648
    2602           0      -557.777588   3043.657227  -40378.31640    318.712616
    2603           0      -920.582458   2954.233398  -40378.31640    302.608582
    2604           0     -1269.961304   2821.730957  -40378.31640    282.360474
    2605           0     -1600.821533   2648.081787  -40378.31640    258.222412
    2606           0     -1908.339844   2435.817139  -40378.31250    231.503357
    2607           0     -2188.032959   2188.030273  -40378.31250    204.766830
    2608           0     -2435.819824   1908.336182  -40378.31250    181.316254
    2609           0     -2648.084961   1600.816406  -40378.31250    163.871109
    2610           0     -2821.733643   1269.955078  -40378.31250    152.861633
    2611           0     -2954.235352    920.576294  -40378.31250    145.920547
    2612           0     -3043.658203    557.773193  -40378.31250    141.745865
    2613           0     -3088.698730    186.833206  -40378.31250    150.436554
    2614           0      -186.834915   3088.698242  -40002.40625    338.677338
    2615           0      -557.777588   3043.657227  -40002.41015    325.873352
    2616           0      -920.582397   2954.233398  -40002.41015    308.764008
    2617           0     -1269.961304   2821.730957  -40002.40625    287.281982
    2618           0     -1600.821533   2648.081787  -40002.40625    261.932190
    2619           0     -1908.339844   2435.817139  -40002.40625    234.294937
    2620           0     -2188.032959   2188.030273  -40002.40625    207.092896
    2621           0     -2435.819824   1908.336182  -40002.40625    183.703461
    2622           0     -2648.084961   1600.816406  -40002.40625    166.830566
    2623           0     -2821.733643   1269.955078  -40002.40625    156.825668
    2624           0     -2954.235352    920.576172  -40002.40625    151.112747
    2625           0     -3043.658203    557.773132  -40002.40625    147.273346
    2626           0     -3088.698730    186.833206  -40002.40625    152.707016
    2627           0      -186.834885   3088.698242  -39626.50390    346.529114
    2628           0      -557.777466   3043.657227  -39626.50000    333.101013
    2629           0      -920.582336   2954.233398  -39626.50390    314.956482
    2630           0     -1269.961182   2821.730957  -39626.50390    292.237061
    2631           0     -1600.821533   2648.081787  -39626.50390    265.685547
    2632           0     -1908.339844   2435.817139  -39626.50390    237.104248
    2633           0     -2188.032959   2188.030273  -39626.50390    209.441772
    2634           0     -2435.819824   1908.336182  -39626.50390    186.147614
    2635           0     -2648.084961   1600.816406  -39626.50390    169.891937
    2636           0     -2821.733643   1269.955078  -39626.50390    160.971527
    2637           0     -2954.235352    920.576172  -39626.50390    156.620453
    2638           0     -3043.658203    557.773132  -39626.50781    153.430389
    2639           0     -3088.698730    186.833206  -39626.50781    156.154190
    2640           0      -186.834869   3088.698242  -39250.59765    354.442657
    2641           0      -557.777466   3043.657227  -39250.59375    340.377441
    2642           0      -920.582275   2954.233398  -39250.59375    321.197723
    2643           0     -1269.961182   2821.730957  -39250.59765    297.230713
    2644           0     -1600.821533   2648.081787  -39250.59765    269.458527
    2645           0     -1908.339844   2435.817139  -39250.59765    239.949051
    2646           0     -2188.032959   2188.030273  -39250.59765    211.824860
    2647           0     -2435.819824   1908.336182  -39250.59765    188.637207
    2648           0     -2648.084961   1600.816406  -39250.59765    173.044525
    2649           0     -2821.733643   1269.955078  -39250.59765    165.277145
    2650           0     -2954.235352    920.576172  -39250.60156    162.407104
    2651           0     -3043.658203    557.773132  -39250.60156    160.171844
    2652           0     -3088.698730    186.833206  -39250.60156    160.779541
    2653           0      -186.834839   3088.698242  -38874.69921    362.415924
    2654           0      -557.777344   3043.657227  -38874.69531    347.712433
    2655           0      -920.582275   2954.233398  -38874.69531    327.482239
    2656           0     -1269.961182   2821.730957  -38874.69531    302.255829
    2657           0     -1600.821411   2648.081787  -38874.69921    273.274475
    2658           0     -1908.339844   2435.817139  -38874.69921    242.813858
    2659           0     -2188.032959   2188.030273  -38874.69921    214.229767
    2660           0     -2435.819824   1908.336304  -38874.69921    191.182571
    2661           0     -2648.084961   1600.816284  -38874.69921    176.279648
    2662           0     -2821.733643   1269.955078  -38874.69921    169.722961
    2663           0     -2954.235352    920.576172  -38874.69921    168.436981
    2664           0     -3043.658203    557.773132  -38874.69921    167.431564
    2665           0     -3088.698730    186.833206  -38874.69921    166.584747
    2666           0      -186.834839   3088.698242  -38498.80078    370.448853
    2667           0      -557.777344   3043.657227  -38498.80468    355.096436
    2668           0      -920.582153   2954.233398  -38498.80468    333.819305
    2669           0     -1269.961060   2821.730957  -38498.80078    307.325134
    2670           0     -1600.821411   2648.082031  -38498.80078    277.099121
    2671           0     -1908.339600   2435.817383  -38498.80078    245.708206
    2672           0     -2188.032715   2188.030518  -38498.80078    216.684280
    2673           0     -2435.819824   1908.336426  -38498.80078    193.755798
    2674           0     -2648.084961   1600.816284  -38498.79687    179.587204
    2675           0     -2821.733887   1269.954834  -38498.79687    174.292480
    2676           0     -2954.235352    920.576172  -38498.79687    174.673065
    2677           0     -3043.658203    557.773071  -38498.79687    175.153915
    2678           0     -3088.698730    186.833130  -38498.79687    173.480804
    2679           0      -186.834808   3088.698242  -38122.89453    378.539093
    2680           0      -557.777283   3043.657227  -38122.89453    362.536835
    2681           0      -920.582092   2954.233398  -38122.89453    340.201904
    2682           0     -1269.960938   2821.730957  -38122.89453    312.427216
    2683           0     -1600.821289   2648.082031  -38122.89453    280.967773
    2684           0     -1908.339478   2435.817383  -38122.89453    248.645203
    2685           0     -2188.032715   2188.030762  -38122.89453    219.148438
    2686           0     -2435.819824   1908.336426  -38122.89453    196.360794
    2687           0     -2648.084961   1600.816284  -38122.89453    182.956924
    2688           0     -2821.733887   1269.954834  -38122.89453    178.965988
    2689           0     -2954.235352    920.576172  -38122.89062    181.085144
    2690           0     -3043.658203    557.773010  -38122.89062    183.269073
    2691           0     -3088.698730    186.833069  -38122.89062    181.427994
    2692           0      -186.834778   3088.698242  -37746.98828    386.687317
    2693           0      -557.777222   3043.657227  -37746.98828    370.030090
    2694           0      -920.582031   2954.233398  -37746.98828    346.632751
    2695           0     -1269.960938   2821.730957  -37746.98828    317.581848
    2696           0     -1600.821289   2648.082031  -37746.98828    284.875427
    2697           0     -1908.339478   2435.817383  -37746.98828    251.589554
    2698           0     -2188.032715   2188.030762  -37746.98828    221.645081
    2699           0     -2435.819824   1908.336426  -37746.98828    199.014297
    2700           0     -2648.084961   1600.816284  -37746.98828    186.378220
    2701           0     -2821.733887   1269.954834  -37746.98828    183.730728
    2702           0     -2954.235352    920.576172  -37746.98828    187.646973
    2703           0     -3043.658203    557.772949  -37746.98828    191.712555
    2704           0     -3088.698730    186.833069  -37746.98828    190.263290
    2705           0      -186.834778   3088.698242  -37371.08203    394.889496
    2706           0      -557.777222   3043.657227  -37371.07812    377.575714
    2707           0      -920.581970   2954.233398  -37371.08203    353.108337
    2708           0     -1269.960815   2821.730957  -37371.08203    322.771149
    2709           0     -1600.821167   2648.082031  -37371.08203    288.819672
    2710           0     -1908.339478   2435.817383  -37371.08203    254.578949
    2711           0     -2188.032715   2188.030762  -37371.08203    224.172699
    2712           0     -2435.819824   1908.336426  -37371.08203    201.687683
    2713           0     -2648.084961   1600.816284  -37371.08203    189.838409
    2714           0     -2821.733887   1269.954834  -37371.08203    188.572220
    2715           0     -2954.235352    920.576050  -37371.08203    194.339539
    2716           0     -3043.658203    557.772827  -37371.08593    200.441025
    2717           0     -3088.698730    186.833069  -37371.08593    199.936554
    2718           0      -186.834747   3088.698242  -36995.17578    403.154572
    2719           0      -557.777161   3043.657227  -36995.17187    385.179230
    2720           0      -920.581909   2954.233398  -36995.17187    359.638855
    2721           0     -1269.960815   2821.730957  -36995.17578    328.018890
    2722           0     -1600.821045   2648.082031  -36995.17578    292.798920
    2723           0     -1908.339478   2435.817383  -36995.17578    257.586731
    2724           0     -2188.032715   2188.030762  -36995.17968    226.728897
    2725           0     -2435.819824   1908.336426  -36995.17968    204.387192
    2726           0     -2648.084961   1600.816284  -36995.17968    193.328217
    2727           0     -2821.733887   1269.954834  -36995.17968    193.472015
    2728           0     -2954.235352    920.576050  -36995.18359    201.141754
    2729           0     -3043.658203    557.772827  -36995.18359    209.378662
    2730           0     -3088.698730    186.833069  -36995.18359    210.250610
    2731           0      -186.834747   3088.698242  -36619.27734    411.450317
    2732           0      -557.777100   3043.657227  -36619.27343    392.817780
    2733           0      -920.581787   2954.233398  -36619.27343    366.197266
    2734           0     -1269.960693   2821.730957  -36619.27343    333.278259
    2735           0     -1600.821045   2648.082031  -36619.27343    296.807129
    2736           0     -1908.339478   2435.817383  -36619.27734    260.642975
    2737           0     -2188.032715   2188.030762  -36619.27734    229.304504
    2738           0     -2435.819824   1908.336426  -36619.27734    207.108246
    2739           0     -2648.084961   1600.816284  -36619.27734    196.842911
    2740           0     -2821.733887   1269.954834  -36619.27734    198.423660
    2741           0     -2954.235352    920.576050  -36619.27734    208.061447
    2742           0     -3043.658203    557.772827  -36619.27734    218.543411
    2743           0     -3088.698730    186.833069  -36619.27734    221.133392
    2744           0      -186.834717   3088.698242  -36243.37500    419.880402
    2745           0      -557.776978   3043.657471  -36243.37500    400.583069
    2746           0      -920.581787   2954.233643  -36243.37500    372.874939
    2747           0     -1269.960693   2821.731201  -36243.37500    338.638306
    2748           0     -1600.821045   2648.082031  -36243.37500    300.902069
    2749           0     -1908.339478   2435.817383  -36243.37500    263.734650
    2750           0     -2188.032715   2188.030762  -36243.37500    231.900284
    2751           0     -2435.819824   1908.336426  -36243.37500    209.843857
    2752           0     -2648.084961   1600.816284  -36243.37500    200.358261
    2753           0     -2821.733887   1269.954834  -36243.37500    203.380173
    2754           0     -2954.235352    920.576050  -36243.37500    215.060989
    2755           0     -3043.658203    557.772827  -36243.37500    227.873657
    2756           0     -3088.698730    186.833069  -36243.37500    232.530228
    2757           0      -186.834686   3088.698242  -35867.46875    428.096649
    2758           0      -557.776978   3043.657471  -35867.46875    408.151428
    2759           0      -920.581665   2954.233643  -35867.46875    379.383057
    2760           0     -1269.960693   2821.731201  -35867.46875    343.882080
    2761           0     -1600.821045   2648.082031  -35867.46875    304.893311
    2762           0     -1908.339355   2435.817383  -35867.46875    266.782684
    2763           0     -2188.032715   2188.030762  -35867.46875    234.508606
    2764           0     -2435.819824   1908.336426  -35867.46875    212.603607
    2765           0     -2648.084961   1600.816284  -35867.46875    203.896362
    2766           0     -2821.733887   1269.954834  -35867.46875    208.360870
    2767           0     -2954.235352    920.576050  -35867.46875    222.114395
    2768           0     -3043.658203    557.772827  -35867.46875    237.331345
    2769           0     -3088.698730    186.833069  -35867.46875    244.006836
    2770           0      -186.834656   3088.698242  -35491.56250    437.197968
    2771           0      -557.776917   3043.657471  -35491.55859    416.543304
    2772           0      -920.581604   2954.233643  -35491.56250    386.629456
    2773           0     -1269.960449   2821.731201  -35491.56250    349.720917
    2774           0     -1600.820801   2648.082031  -35491.56250    309.347412
    2775           0     -1908.339111   2435.817627  -35491.56250    270.136108
    2776           0     -2188.032715   2188.030762  -35491.56250    237.269211
    2777           0     -2435.819824   1908.336426  -35491.56250    215.432114
    2778           0     -2648.084961   1600.816284  -35491.56250    207.484665
    2779           0     -2821.733887   1269.954834  -35491.56640    213.397781
    2780           0     -2954.235352    920.576050  -35491.56640    229.400558
    2781           0     -3043.658203    557.772766  -35491.56640    247.357834
    2782           0     -3088.698730    186.832993  -35491.57031    256.682404
    2783           0      -186.834656   3088.698242  -35115.65625    444.037109
    2784           0      -557.776855   3043.657471  -35115.65234    422.839203
    2785           0      -920.581543   2954.233643  -35115.65625    392.014099
    2786           0     -1269.960449   2821.731201  -35115.65625    354.038177
    2787           0     -1600.820679   2648.082031  -35115.65625    312.630829
    2788           0     -1908.339111   2435.817627  -35115.65625    272.683502
    2789           0     -2188.032471   2188.030762  -35115.65625    239.532104
    2790           0     -2435.819824   1908.336426  -35115.65625    217.955475
    2791           0     -2648.084961   1600.816284  -35115.66015    210.793030
    2792           0     -2821.733887   1269.954834  -35115.66015    218.032700
    2793           0     -2954.235352    920.575928  -35115.66015    235.944153
    2794           0     -3043.658203    557.772644  -35115.66015    256.308868
    2795           0     -3088.698730    186.832916  -35115.66406    267.501862
    2796           0      -186.834625   3088.698242  -34739.75781    456.305878
    2797           0      -557.776855   3043.657715  -34739.75390    434.196869
    2798           0      -920.581482   2954.233643  -34739.75390    401.909668
    2799           0     -1269.960327   2821.731201  -34739.75781    362.102570
    2800           0     -1600.820679   2648.082031  -34739.75781    318.852020
    2801           0     -1908.339111   2435.817627  -34739.75781    277.337952
    2802           0     -2188.032471   2188.030762  -34739.75781    243.241348
    2803           0     -2435.819824   1908.336426  -34739.75781    221.482605
    2804           0     -2648.084961   1600.816284  -34739.75781    215.106613
    2805           0     -2821.733887   1269.954834  -34739.75781    223.963547
    2806           0     -2954.235352    920.575928  -34739.75781    244.564758
    2807           0     -3043.658203    557.772522  -34739.75781    268.610168
    2808           0     -3088.698730    186.832916  -34739.75781    283.536102
    2809           0      -186.834610   3088.698486  -34363.85937    461.540802
    2810           0      -557.776733   3043.657715  -34363.86328    439.034546
    2811           0      -920.581421   2954.233643  -34363.85937    406.082428
    2812           0     -1269.960327   2821.731201  -34363.85937    365.512054
    2813           0     -1600.820679   2648.082031  -34363.85937    321.547974
    2814           0     -1908.339111   2435.817627  -34363.85937    279.580811
    2815           0     -2188.032471   2188.030762  -34363.85937    245.367996
    2816           0     -2435.819824   1908.336426  -34363.85937    223.926743
    2817           0     -2648.084961   1600.816284  -34363.85937    218.174515
    2818           0     -2821.733887   1269.954834  -34363.85937    228.147812
    2819           0     -2954.235352    920.575928  -34363.85937    250.000488
    2820           0     -3043.658203    557.772522  -34363.85937    276.088196
    2821           0     -3088.698730    186.832916  -34363.85546    292.778442
    2822           0      -186.834595   3088.698486  -33987.95312    451.002136
    2823           0      -557.776672   3043.657715  -33987.95312    428.732330
    2824           0      -920.581360   2954.233643  -33987.95312    395.991425
    2825           0     -1269.960205   2821.731445  -33987.95312    355.664673
    2826           0     -1600.820557   2648.082520  -33987.95312    312.141937
    2827           0     -1908.339111   2435.817871  -33987.95312    270.925415
    2828           0     -2188.032471   2188.030762  -33987.95312    237.763260
    2829           0     -2435.819824   1908.336426  -33987.95312    217.669205
    2830           0     -2648.084961   1600.816284  -33987.95312    213.500885
    2831           0     -2821.733887   1269.954834  -33987.95312    225.225174
    2832           0     -2954.235352    920.575928  -33987.95312    249.352829
    2833           0     -3043.658203    557.772522  -33987.95312    278.456879
    2834           0     -3088.698730    186.832916  -33987.95312    299.818665
    2835           0       186.795288  -3088.703125  -64812.04687     74.655708
    2836           0       557.659729  -3043.681396  -64812.04687     63.326244
    2837           0       920.396851  -2954.293213  -64812.04687     41.890095
    2838           0      1269.717041  -2821.843262  -64812.04687     29.701252
    2839           0      1600.529785  -2648.260498  -64812.04687     60.716717
    2840           0      1908.012695  -2436.076660  -64812.04687    104.661247
    2841           0      2187.682861  -2188.383789  -64812.04687    143.376907
    2842           0      2435.465332  -1908.792969  -64812.04687    164.416031
    2843           0      2647.746582  -1601.379883  -64812.04687    149.264206
    2844           0      2821.433838  -1270.626709  -64812.04687     79.670074
    2845           0       186.795776  -3088.703125  -64436.14062     70.759422
    2846           0       557.661011  -3043.681152  -64436.14062     60.257057
    2847           0       920.398682  -2954.292725  -64436.14062     40.636921
    2848           0      1269.719482  -2821.842285  -64436.14062     30.973537
    2849           0      1600.532349  -2648.258789  -64436.14062     60.061539
    2850           0      1908.015259  -2436.074463  -64436.14062    100.899170
    2851           0      2187.685059  -2188.381836  -64436.14062    136.248993
    2852           0      2435.466797  -1908.791260  -64436.14062    154.005722
    2853           0      2647.747559  -1601.378662  -64436.14062    140.884125
    2854           0      2821.434082  -1270.626343  -64436.14062     81.588783
    2855           0       186.795761  -3088.703125  -64060.24218     66.820175
    2856           0       557.661011  -3043.681152  -64060.24218     57.257671
    2857           0       920.398682  -2954.292725  -64060.24218     39.245258
    2858           0      1269.719482  -2821.842285  -64060.24218     30.695921
    2859           0      1600.532227  -2648.258789  -64060.24218     57.394627
    2860           0      1908.015137  -2436.074463  -64060.24218     95.411423
    2861           0      2187.684814  -2188.381836  -64060.24218    127.444984
    2862           0      2435.466553  -1908.791260  -64060.24218    143.432755
    2863           0      2647.747314  -1601.378662  -64060.24218    129.651276
    2864           0      2821.434082  -1270.626343  -64060.24218     80.966675
    2865           0       186.795761  -3088.703125  -63684.33984     60.217258
    2866           0       557.660950  -3043.681152  -63684.33984     52.119545
    2867           0       920.398621  -2954.292725  -63684.33984     36.901428
    2868           0      1269.719360  -2821.842285  -63684.33984     30.734781
    2869           0      1600.532104  -2648.259033  -63684.33984     54.038750
    2870           0      1908.015015  -2436.074463  -63684.33984     86.958572
    2871           0      2187.684814  -2188.381836  -63684.33984    114.246597
    2872           0      2435.466309  -1908.791260  -63684.33984    126.197807
    2873           0      2647.747314  -1601.378662  -63684.33984    114.380013
    2874           0      2821.434082  -1270.626343  -63684.33984     84.254074
    2875           0       186.795746  -3088.703125  -63308.43359     55.284908
    2876           0       557.660889  -3043.681152  -63308.43359     48.435272
    2877           0       920.398560  -2954.292725  -63308.43359     35.437744
    2878           0      1269.719238  -2821.842529  -63308.43359     30.781458
    2879           0      1600.531982  -2648.259277  -63308.43359     51.319969
    2880           0      1908.015015  -2436.074707  -63308.43359     80.497299
    2881           0      2187.684570  -2188.381836  -63308.43359    104.198639
    2882           0      2435.466309  -1908.791260  -63308.43359    113.552544
    2883           0      2647.747314  -1601.378662  -63308.43359    105.392334
    2884           0      2821.434082  -1270.626343  -63308.43359     92.292145
    2885           0       186.795731  -3088.703125  -62932.53125     49.591988
    2886           0       557.660889  -3043.681152  -62932.53125     44.200890
    2887           0       920.398560  -2954.292969  -62932.53125     33.798218
    2888           0      1269.719238  -2821.842529  -62932.53125     30.929098
    2889           0      1600.531982  -2648.259277  -62932.53125     48.504787
    2890           0      1908.015015  -2436.074707  -62932.53125     73.399078
    2891           0      2187.684570  -2188.381836  -62932.53125     92.783607
    2892           0      2435.466309  -1908.791382  -62932.53125     99.139641
    2893           0      2647.747314  -1601.378906  -62932.53125     97.853287
    2894           0      2821.434082  -1270.626343  -62932.53125    101.856506
    2895           0       186.795715  -3088.703125  -62556.62500     44.192402
    2896           0       557.660889  -3043.681152  -62556.62500     40.332352
    2897           0       920.398499  -2954.292969  -62556.62500     32.503731
    2898           0      1269.719238  -2821.842529  -62556.62500     31.133362
    2899           0      1600.531982  -2648.259277  -62556.62500     45.892052
    2900           0      1908.015015  -2436.074707  -62556.62500     66.638840
    2901           0      2187.684570  -2188.381836  -62556.62500     81.759628
    2902           0      2435.466309  -1908.791382  -62556.62500     86.674484
    2903           0      2647.747314  -1601.378906  -62556.62500     95.127472
    2904           0      2821.434082  -1270.626465  -62556.62500    112.047798
    2905           0       186.795700  -3088.703125  -62180.72656     38.733490
    2906           0       557.660828  -3043.681152  -62180.72656     36.558861
    2907           0       920.398438  -2954.292969  -62180.72656     31.396786
    2908           0      1269.719238  -2821.842529  -62180.72656     31.450308
    2909           0      1600.531982  -2648.259277  -62180.72656     43.484596
    2910           0      1908.014893  -2436.074707  -62180.72656     59.884300
    2911           0      2187.684570  -2188.382080  -62180.72656     70.640907
    2912           0      2435.466309  -1908.791504  -62180.72656     75.374092
    2913           0      2647.747314  -1601.378906  -62180.72656     95.721077
    2914           0      2821.434082  -1270.626465  -62180.72656    121.376312
    2915           0       186.795685  -3088.703125  -61804.82421     33.385193
    2916           0       557.660767  -3043.681152  -61804.82421     33.059235
    2917           0       920.398376  -2954.292969  -61804.82421     30.588779
    2918           0      1269.719238  -2821.842529  -61804.82421     31.877340
    2919           0      1600.531860  -2648.259277  -61804.82421     41.300774
    2920           0      1908.014893  -2436.074707  -61804.82421     53.220051
    2921           0      2187.684570  -2188.382080  -61804.82421     59.608124
    2922           0      2435.466309  -1908.791504  -61804.82421     66.500961
    2923           0      2647.747314  -1601.378906  -61804.82421     99.417351
    2924           0      2821.434082  -1270.626465  -61804.82421    129.468292
    2925           0       186.795670  -3088.703125  -61428.91796     28.190134
    2926           0       557.660706  -3043.681152  -61428.91796     29.911469
    2927           0       920.398315  -2954.292969  -61428.91796     30.084341
    2928           0      1269.718994  -2821.842529  -61428.91796     32.437199
    2929           0      1600.531738  -2648.259277  -61428.91796     39.396675
    2930           0      1908.014648  -2436.074707  -61428.91796     46.682644
    2931           0      2187.684570  -2188.382080  -61428.91796     48.840431
    2932           0      2435.466309  -1908.791504  -61428.91796     60.589844
    2933           0      2647.747314  -1601.378906  -61428.91796    105.066376
    2934           0      2821.434082  -1270.626465  -61428.91796    135.958252
    2935           0       186.795654  -3088.703125  -61053.01171     23.302422
    2936           0       557.660706  -3043.681152  -61053.01171     27.261150
    2937           0       920.398315  -2954.292969  -61053.01171     29.921335
    2938           0      1269.718994  -2821.842529  -61053.01171     33.134312
    2939           0      1600.531738  -2648.259277  -61053.01171     37.816158
    2940           0      1908.014648  -2436.074707  -61053.01171     40.369301
    2941           0      2187.684570  -2188.382324  -61053.01171     38.450336
    2942           0      2435.466309  -1908.791748  -61053.01171     58.264950
    2943           0      2647.747314  -1601.378906  -61053.01171    111.866577
    2944           0      2821.434082  -1270.626465  -61053.01171    140.861572
    2945           0       186.795639  -3088.703125  -60677.10937     18.998796
    2946           0       557.660706  -3043.681152  -60677.10937     25.284916
    2947           0       920.398315  -2954.292969  -60677.10937     30.109852
    2948           0      1269.718872  -2821.842529  -60677.10937     33.980156
    2949           0      1600.531616  -2648.259277  -60677.10937     36.621765
    2950           0      1908.014648  -2436.075195  -60677.10937     34.415333
    2951           0      2187.684570  -2188.382324  -60677.10937     28.822498
    2952           0      2435.466309  -1908.791748  -60677.10937     59.478458
    2953           0      2647.747070  -1601.379028  -60677.10937    119.142166
    2954           0      2821.434082  -1270.626465  -60677.10937    144.207474
    2955           0       186.795639  -3088.703125  -60301.20312     15.813213
    2956           0       557.660645  -3043.681152  -60301.20312     24.162582
    2957           0       920.398193  -2954.292969  -60301.20312     30.659063
    2958           0      1269.718872  -2821.842529  -60301.20312     34.978497
    2959           0      1600.531494  -2648.259277  -60301.20312     35.869404
    2960           0      1908.014648  -2436.075195  -60301.20312     29.044584
    2961           0      2187.684326  -2188.382324  -60301.20312     20.667940
    2962           0      2435.466309  -1908.791748  -60301.20312     63.611042
    2963           0      2647.747070  -1601.379028  -60301.20312    126.441536
    2964           0      2821.434082  -1270.626465  -60301.20312    146.154556
    2965           0       186.795639  -3088.703125  -59925.29687     14.544437
    2966           0       557.660645  -3043.681152  -59925.29687     24.033154
    2967           0       920.398193  -2954.292969  -59925.29687     31.559061
    2968           0      1269.718750  -2821.842529  -59925.29687     36.133888
    2969           0      1600.531494  -2648.259277  -59925.29687     35.595814
    2970           0      1908.014404  -2436.075195  -59925.29687     24.577135
    2971           0      2187.684326  -2188.382324  -59925.29687     15.909649
    2972           0      2435.466309  -1908.791748  -59925.29687     69.745110
    2973           0      2647.747070  -1601.379028  -59925.29687    133.486679
    2974           0      2821.434082  -1270.626465  -59925.29687    146.851532
    2975           0       186.795624  -3088.703125  -59549.39843     15.702095
    2976           0       557.660645  -3043.681152  -59549.39843     24.925167
    2977           0       920.398193  -2954.292969  -59549.39843     32.792713
    2978           0      1269.718750  -2821.842529  -59549.39843     37.442890
    2979           0      1600.531494  -2648.259277  -59549.39843     35.809799
    2980           0      1908.014404  -2436.075195  -59549.39843     21.473398
    2981           0      2187.684326  -2188.382324  -59549.39843     17.002876
    2982           0      2435.466309  -1908.791748  -59549.39843     77.059143
    2983           0      2647.747070  -1601.379028  -59549.39843    140.106049
    2984           0      2821.434082  -1270.626465  -59549.39843    146.487473
    2985           0       186.795609  -3088.703125  -59173.49609     18.868492
    2986           0       557.660583  -3043.681152  -59173.49609     26.749628
    2987           0       920.398010  -2954.292969  -59173.49609     34.330688
    2988           0      1269.718750  -2821.842529  -59173.49609     38.897411
    2989           0      1600.531372  -2648.259521  -59173.49609     36.484638
    2990           0      1908.014404  -2436.075195  -59173.49609     20.203226
    2991           0      2187.684326  -2188.382324  -59173.49609     22.683136
    2992           0      2435.466309  -1908.791748  -59173.49609     84.947021
    2993           0      2647.747070  -1601.379150  -59173.49609    146.219101
    2994           0      2821.434082  -1270.626465  -59173.49609    145.229996
    2995           0       186.795593  -3088.703125  -58797.58984     23.253860
    2996           0       557.660522  -3043.681152  -58797.58984     29.340313
    2997           0       920.398010  -2954.292969  -58797.58984     36.138645
    2998           0      1269.718750  -2821.842529  -58797.58984     40.482475
    2999           0      1600.531372  -2648.259521  -58797.58984     37.564426
    3000           0      1908.014404  -2436.075195  -58797.58984     20.910618
    3001           0      2187.684082  -2188.382324  -58797.58984     30.126226
    3002           0      2435.466309  -1908.791870  -58797.58984     93.011703
    3003           0      2647.747070  -1601.379150  -58797.58984    151.787140
    3004           0      2821.434082  -1270.626465  -58797.58984    143.253677
    3005           0       186.795578  -3088.703125  -58421.68750     28.307335
    3006           0       557.660522  -3043.681152  -58421.68750     32.518085
    3007           0       920.397949  -2954.292969  -58421.68750     38.178040
    3008           0      1269.718506  -2821.842773  -58421.68750     42.176777
    3009           0      1600.531250  -2648.259766  -58421.68750     38.971870
    3010           0      1908.014404  -2436.075195  -58421.68750     23.229828
    3011           0      2187.684082  -2188.382568  -58421.68750     38.022877
    3012           0      2435.466064  -1908.791992  -58421.68750    100.998970
    3013           0      2647.747070  -1601.379272  -58421.68750    156.812897
    3014           0      2821.434082  -1270.626465  -58421.68750    140.708893
    3015           0       186.795578  -3088.703125  -58045.78125     33.735455
    3016           0       557.660461  -3043.681152  -58045.78125     36.126614
    3017           0       920.397949  -2954.292969  -58045.78125     40.410275
    3018           0      1269.718506  -2821.842773  -58045.78125     43.955788
    3019           0      1600.531250  -2648.259766  -58045.78125     40.621754
    3020           0      1908.014160  -2436.075439  -58045.78125     26.567242
    3021           0      2187.684082  -2188.382568  -58045.78125     45.898949
    3022           0      2435.466064  -1908.791992  -58045.78125    108.753151
    3023           0      2647.747070  -1601.379272  -58045.78125    161.313187
    3024           0      2821.434082  -1270.626465  -58045.78125    137.740356
    3025           0       186.795563  -3088.703125  -57669.87890     39.384140
    3026           0       557.660400  -3043.681152  -57669.87890     40.043686
    3027           0       920.397888  -2954.292969  -57669.87890     42.797523
    3028           0      1269.718384  -2821.842773  -57669.87890     45.793095
    3029           0      1600.531006  -2648.259766  -57669.87890     42.430840
    3030           0      1908.014038  -2436.075684  -57669.87890     30.435442
    3031           0      2187.683838  -2188.382813  -57669.87890     53.557148
    3032           0      2435.465820  -1908.791992  -57669.87890    116.177971
    3033           0      2647.747070  -1601.379272  -57669.87890    165.322067
    3034           0      2821.434082  -1270.626465  -57669.87890    134.470657
    3035           0       186.795547  -3088.703125  -57293.97656     45.166943
    3036           0       557.660400  -3043.681396  -57293.97656     44.178139
    3037           0       920.397827  -2954.292969  -57293.97656     45.304745
    3038           0      1269.718384  -2821.842773  -57293.97656     47.660076
    3039           0      1600.531006  -2648.259766  -57293.97656     44.324699
    3040           0      1908.014038  -2436.075684  -57293.97656     34.515320
    3041           0      2187.683838  -2188.382813  -57293.97656     60.905663
    3042           0      2435.465820  -1908.791992  -57293.97656    123.218018
    3043           0      2647.747070  -1601.379395  -57293.97656    168.876358
    3044           0      2821.434082  -1270.626465  -57293.97656    131.012802
    3045           0       186.795532  -3088.703125  -56918.07421     51.030083
    3046           0       557.660400  -3043.681396  -56918.07421     48.461739
    3047           0       920.397827  -2954.292969  -56918.07421     47.901176
    3048           0      1269.718384  -2821.842773  -56918.07421     49.530830
    3049           0      1600.531006  -2648.259766  -56918.07421     46.238194
    3050           0      1908.014038  -2436.075684  -56918.07421     38.618401
    3051           0      2187.683838  -2188.382813  -56918.07421     67.894981
    3052           0      2435.465820  -1908.791992  -56918.07421    129.842499
    3053           0      2647.747070  -1601.379395  -56918.07421    172.018600
    3054           0      2821.434082  -1270.626465  -56918.07421    127.461258
    3055           0       186.795517  -3088.703125  -56542.16796     56.936569
    3056           0       557.660339  -3043.681396  -56542.16796     52.844074
    3057           0       920.397705  -2954.292969  -56542.16796     50.558212
    3058           0      1269.718262  -2821.842773  -56542.16796     51.381065
    3059           0      1600.531006  -2648.259766  -56542.16796     48.119305
    3060           0      1908.014038  -2436.075684  -56542.16796     42.628193
    3061           0      2187.683838  -2188.382813  -56542.16796     74.497902
    3062           0      2435.465820  -1908.791992  -56542.16796    136.038177
    3063           0      2647.747070  -1601.379395  -56542.16796    174.789566
    3064           0      2821.434082  -1270.626465  -56542.16796    123.900589
    3065           0       186.795502  -3088.703125  -56166.26562     62.858238
    3066           0       557.660339  -3043.681396  -56166.26562     57.286774
    3067           0       920.397705  -2954.292969  -56166.26562     53.252724
    3068           0      1269.718262  -2821.842773  -56166.26562     53.188450
    3069           0      1600.531006  -2648.259766  -56166.26562     49.925625
    3070           0      1908.013916  -2436.075684  -56166.26562     46.473301
    3071           0      2187.683838  -2188.382813  -56166.26562     80.699036
    3072           0      2435.465820  -1908.791992  -56166.26562    141.802734
    3073           0      2647.747070  -1601.379395  -56166.26562    177.230209
    3074           0      2821.434082  -1270.626465  -56166.26562    120.400543
    3075           0       186.795486  -3088.703125  -55790.35937     68.771729
    3076           0       557.660278  -3043.681396  -55790.35937     61.759827
    3077           0       920.397705  -2954.292969  -55790.35937     55.965969
    3078           0      1269.718140  -2821.842773  -55790.35937     54.936089
    3079           0      1600.530884  -2648.259766  -55790.35937     51.624577
    3080           0      1908.013794  -2436.075684  -55790.35937     50.107189
    3081           0      2187.683594  -2188.382813  -55790.35937     86.489334
    3082           0      2435.465820  -1908.792236  -55790.35937    147.140549
    3083           0      2647.747070  -1601.379395  -55790.35937    179.378632
    3084           0      2821.434082  -1270.626465  -55790.35937    117.022064
    3085           0       186.795486  -3088.703125  -55414.45312     74.656738
    3086           0       557.660278  -3043.681396  -55414.45312     66.240402
    3087           0       920.397583  -2954.292969  -55414.45312     58.682087
    3088           0      1269.718018  -2821.842773  -55414.45312     56.610050
    3089           0      1600.530762  -2648.260010  -55414.45312     53.190758
    3090           0      1908.013672  -2436.075684  -55414.45312     53.497879
    3091           0      2187.683594  -2188.382813  -55414.45312     91.866913
    3092           0      2435.465820  -1908.792236  -55414.45312    152.062454
    3093           0      2647.747070  -1601.379395  -55414.45312    181.270355
    3094           0      2821.434082  -1270.626465  -55414.45312    113.814369
    3095           0       186.795486  -3088.703125  -55038.55468     80.494858
    3096           0       557.660217  -3043.681396  -55038.55468     70.709595
    3097           0       920.397583  -2954.292969  -55038.55468     61.390121
    3098           0      1269.718018  -2821.842773  -55038.55468     58.200356
    3099           0      1600.530640  -2648.260010  -55038.55468     54.607475
    3100           0      1908.013672  -2436.075684  -55038.55468     56.624699
    3101           0      2187.683594  -2188.382813  -55038.55468     96.827126
    3102           0      2435.465820  -1908.792236  -55038.55468    156.578201
    3103           0      2647.747070  -1601.379395  -55038.55468    182.938324
    3104           0      2821.434082  -1270.626465  -55038.55468    110.818932
    3105           0       186.795471  -3088.703125  -54662.65234     86.269218
    3106           0       557.660217  -3043.681396  -54662.65234     75.152611
    3107           0       920.397461  -2954.292969  -54662.65234     64.081322
    3108           0      1269.717896  -2821.842773  -54662.65234     59.702873
    3109           0      1600.530640  -2648.260010  -54662.65234     55.859150
    3110           0      1908.013672  -2436.075684  -54662.65234     59.471241
    3111           0      2187.683594  -2188.382813  -54662.65234    101.378258
    3112           0      2435.465820  -1908.792358  -54662.65234    160.707993
    3113           0      2647.747070  -1601.379395  -54662.65234    184.409866
    3114           0      2821.434082  -1270.626465  -54662.65234    108.068985
    3115           0       186.795456  -3088.703125  -54286.74609     91.964180
    3116           0       557.660156  -3043.681396  -54286.74609     79.557281
    3117           0       920.397400  -2954.292969  -54286.74609     66.751747
    3118           0      1269.717896  -2821.842773  -54286.74609     61.114880
    3119           0      1600.530518  -2648.260010  -54286.74609     56.938660
    3120           0      1908.013550  -2436.075684  -54286.74609     62.026215
    3121           0      2187.683594  -2188.383057  -54286.74609    105.521111
    3122           0      2435.465820  -1908.792358  -54286.74609    164.462433
    3123           0      2647.747070  -1601.379517  -54286.74609    185.713440
    3124           0      2821.434082  -1270.626465  -54286.74609    105.589363
    3125           0       186.795441  -3088.703125  -53910.84375     97.565437
    3126           0       557.660156  -3043.681396  -53910.84375     83.914284
    3127           0       920.397400  -2954.292969  -53910.84375     69.399460
    3128           0      1269.717773  -2821.843018  -53910.84375     62.438854
    3129           0      1600.530518  -2648.260254  -53910.84375     57.843616
    3130           0      1908.013550  -2436.075928  -53910.84375     64.284393
    3131           0      2187.683594  -2188.383301  -53910.84375    109.256737
    3132           0      2435.465576  -1908.792480  -53910.84375    167.853928
    3133           0      2647.747070  -1601.379639  -53910.84375    186.874634
    3134           0      2821.434082  -1270.626587  -53910.84375    103.398041
    3135           0       186.795425  -3088.703125  -53534.93750    103.059052
    3136           0       557.660095  -3043.681396  -53534.93750     88.214920
    3137           0       920.397400  -2954.293213  -53534.93750     72.024780
    3138           0      1269.717773  -2821.843018  -53534.93750     63.681339
    3139           0      1600.530396  -2648.260254  -53534.93750     58.571373
    3140           0      1908.013428  -2436.076172  -53534.93750     66.236145
    3141           0      2187.683594  -2188.383301  -53534.93750    112.595474
    3142           0      2435.465576  -1908.792480  -53534.93750    170.903580
    3143           0      2647.746826  -1601.379639  -53534.93750    187.911148
    3144           0      2821.434082  -1270.626709  -53534.93750    101.511368
    3145           0       186.795410  -3088.703125  -53159.03906    108.432198
    3146           0       557.660034  -3043.681396  -53159.03906     92.451958
    3147           0       920.397400  -2954.293213  -53159.03906     74.629883
    3148           0      1269.717773  -2821.843018  -53159.03906     64.851402
    3149           0      1600.530396  -2648.260254  -53159.03906     59.124729
    3150           0      1908.013428  -2436.076172  -53159.03906     67.883003
    3151           0      2187.683594  -2188.383301  -53159.03906    115.542480
    3152           0      2435.465576  -1908.792480  -53159.03906    173.620667
    3153           0      2647.746826  -1601.379639  -53159.03906    188.842743
    3154           0      2821.434082  -1270.626709  -53159.03906     99.935677
    3155           0       186.795395  -3088.703125  -52783.13281    113.673676
    3156           0       557.660034  -3043.681396  -52783.13281     96.620819
    3157           0       920.397339  -2954.293213  -52783.13281     77.220093
    3158           0      1269.717773  -2821.843018  -52783.13281     65.960098
    3159           0      1600.530273  -2648.260254  -52783.13281     59.509811
    3160           0      1908.013306  -2436.076172  -52783.13281     69.221458
    3161           0      2187.683350  -2188.383301  -52783.13281    118.104752
    3162           0      2435.465576  -1908.792480  -52783.13281    176.021545
    3163           0      2647.746826  -1601.379639  -52783.13281    189.685089
    3164           0      2821.434082  -1270.626709  -52783.13281     98.674187
    3165           0       186.795395  -3088.703125  -52407.23046    118.773903
    3166           0       557.659973  -3043.681396  -52407.23046    100.717171
    3167           0       920.397217  -2954.293213  -52407.23046     79.801201
    3168           0      1269.717651  -2821.843018  -52407.23046     67.024155
    3169           0      1600.530273  -2648.260254  -52407.23046     59.733921
    3170           0      1908.013062  -2436.076172  -52407.23046     70.251602
    3171           0      2187.683350  -2188.383301  -52407.23046    120.286552
    3172           0      2435.465576  -1908.792725  -52407.23046    178.119644
    3173           0      2647.746826  -1601.379761  -52407.23046    190.452057
    3174           0      2821.434082  -1270.626709  -52407.23046     97.727020
    3175           0       186.795380  -3088.703125  -52031.32812    123.724136
    3176           0       557.659973  -3043.681396  -52031.32812    104.737457
    3177           0       920.397217  -2954.293213  -52031.32812     82.380211
    3178           0      1269.717529  -2821.843018  -52031.32812     68.061012
    3179           0      1600.530151  -2648.260254  -52031.32812     59.809563
    3180           0      1908.013062  -2436.076172  -52031.32812     70.977844
    3181           0      2187.683105  -2188.383301  -52031.32812    122.099342
    3182           0      2435.465576  -1908.792725  -52031.32812    179.925690
    3183           0      2647.746826  -1601.379761  -52031.32812    191.155685
    3184           0      2821.434082  -1270.626709  -52031.32812     97.090622
    3185           0       186.795364  -3088.703125  -51655.42187    128.516251
    3186           0       557.659973  -3043.681396  -51655.42187    108.679581
    3187           0       920.397095  -2954.293213  -51655.42187     84.964989
    3188           0      1269.717529  -2821.843018  -51655.42187     69.089989
    3189           0      1600.530029  -2648.260254  -51655.42187     59.753262
    3190           0      1908.013062  -2436.076172  -51655.42187     71.402298
    3191           0      2187.683105  -2188.383301  -51655.42187    123.548149
    3192           0      2435.465332  -1908.792725  -51655.42187    181.450974
    3193           0      2647.746826  -1601.379761  -51655.42187    191.806396
    3194           0      2821.434082  -1270.626709  -51655.42187     96.758942
    3195           0       186.795349  -3088.703125  -51279.51562    133.143875
    3196           0       557.659912  -3043.681396  -51279.51562    112.541336
    3197           0       920.397095  -2954.293213  -51279.51562     87.564026
    3198           0      1269.717407  -2821.843018  -51279.51562     70.133568
    3199           0      1600.530029  -2648.260254  -51279.51562     59.584175
    3200           0      1908.012939  -2436.076416  -51279.51562     71.532745
    3201           0      2187.683105  -2188.383545  -51279.51562    124.642075
    3202           0      2435.465332  -1908.792725  -51279.51562    182.704788
    3203           0      2647.746826  -1601.379761  -51279.51562    192.412918
    3204           0      2821.434082  -1270.626709  -51279.51562     96.724304
    3205           0       186.795334  -3088.703125  -50903.61718    137.601715
    3206           0       557.659912  -3043.681396  -50903.61718    116.322037
    3207           0       920.397034  -2954.293213  -50903.61718     90.184677
    3208           0      1269.717285  -2821.843262  -50903.61718     71.214302
    3209           0      1600.530029  -2648.260498  -50903.61718     59.327171
    3210           0      1908.012939  -2436.076416  -50903.61718     71.376381
    3211           0      2187.683105  -2188.383545  -50903.61718    125.387924
    3212           0      2435.465332  -1908.792725  -50903.61718    183.696701
    3213           0      2647.746826  -1601.379883  -50903.61718    192.982346
    3214           0      2821.434082  -1270.626709  -50903.61718     96.977676
    3215           0       186.795334  -3088.703125  -50527.71093    141.885391
    3216           0       557.659912  -3043.681396  -50527.71093    120.020569
    3217           0       920.396973  -2954.293213  -50527.71093     92.837021
    3218           0      1269.717285  -2821.843262  -50527.71093     72.357887
    3219           0      1600.530029  -2648.260498  -50527.71093     59.011150
    3220           0      1908.012939  -2436.076416  -50527.71093     70.945610
    3221           0      2187.682861  -2188.383789  -50527.71093    125.794533
    3222           0      2435.465332  -1908.792847  -50527.71093    184.433655
    3223           0      2647.746582  -1601.379883  -50527.71093    193.520996
    3224           0      2821.434082  -1270.626709  -50527.71093     97.509743
    3225           0       186.795319  -3088.703125  -50151.80859    145.991821
    3226           0       557.659790  -3043.681396  -50151.80859    123.637138
    3227           0       920.396973  -2954.293213  -50151.80859     95.527603
    3228           0      1269.717285  -2821.843262  -50151.80859     73.589279
    3229           0      1600.529907  -2648.260498  -50151.80859     58.671570
    3230           0      1908.012695  -2436.076416  -50151.80859     70.253609
    3231           0      2187.682861  -2188.383789  -50151.80859    125.869484
    3232           0      2435.465332  -1908.792847  -50151.80859    184.923691
    3233           0      2647.746582  -1601.379883  -50151.80859    194.033356
    3234           0      2821.434082  -1270.626709  -50151.80859     98.310890
    3235           0       186.795303  -3088.703125  -49775.90234    149.919037
    3236           0       557.659729  -3043.681396  -49775.90234    127.172516
    3237           0       920.396851  -2954.293213  -49775.90234     98.263306
    3238           0      1269.717163  -2821.843262  -49775.90234     74.932076
    3239           0      1600.529785  -2648.260498  -49775.90234     58.350052
    3240           0      1908.012695  -2436.076416  -49775.90234     69.320534
    3241           0      2187.682861  -2188.383789  -49775.90234    125.622086
    3242           0      2435.465332  -1908.792847  -49775.90234    185.171539
    3243           0      2647.746582  -1601.379883  -49775.90234    194.523544
    3244           0      2821.434082  -1270.626709  -49775.90234     99.372246
    3245           0       186.795303  -3088.703125  -49400.00000    153.665802
    3246           0       557.659729  -3043.681396  -49400.00000    130.626633
    3247           0       920.396790  -2954.293213  -49400.00000    101.052895
    3248           0      1269.717041  -2821.843262  -49400.00000     76.412804
    3249           0      1600.529785  -2648.260498  -49400.00000     58.093731
    3250           0      1908.012695  -2436.076660  -49400.00000     68.166618
    3251           0      2187.682861  -2188.383789  -49400.00000    125.061050
    3252           0      2435.465332  -1908.792969  -49400.00000    185.184555
    3253           0      2647.746582  -1601.379883  -49400.00000    194.993698
    3254           0      2821.434082  -1270.626709  -49400.00000    100.685120
    3255           0       186.795288  -3088.703125  -49024.09765    157.232193
    3256           0       557.659729  -3043.681396  -49024.09765    134.001358
    3257           0       920.396790  -2954.293457  -49024.09765    103.901245
    3258           0      1269.717041  -2821.843262  -49024.09765     78.054344
    3259           0      1600.529663  -2648.260742  -49024.09765     57.954304
    3260           0      1908.012573  -2436.076660  -49024.09765     66.826523
    3261           0      2187.682617  -2188.383789  -49024.09765    124.197716
    3262           0      2435.465332  -1908.792969  -49024.09765    184.964249
    3263           0      2647.746582  -1601.380005  -49024.09765    195.446106
    3264           0      2821.434082  -1270.626709  -49024.09765    102.242798
    3265           0       186.795273  -3088.703125  -48648.19140    160.619003
    3266           0       557.659668  -3043.681641  -48648.19140    137.297333
    3267           0       920.396790  -2954.293457  -48648.19140    106.814644
    3268           0      1269.717041  -2821.843262  -48648.19140     79.878540
    3269           0      1600.529541  -2648.260742  -48648.19140     57.992233
    3270           0      1908.012573  -2436.076660  -48648.19140     65.331024
    3271           0      2187.682617  -2188.383789  -48648.19140    123.042877
    3272           0      2435.465332  -1908.792969  -48648.19140    184.519211
    3273           0      2647.746582  -1601.380005  -48648.19140    195.881165
    3274           0      2821.434082  -1270.626709  -48648.19140    104.037941
    3275           0       186.795258  -3088.703125  -48272.28906    163.828232
    3276           0       557.659668  -3043.681641  -48272.28906    140.516739
    3277           0       920.396729  -2954.293457  -48272.28906    109.796707
    3278           0      1269.717041  -2821.843262  -48272.28906     81.906075
    3279           0      1600.529541  -2648.260742  -48272.28906     58.268486
    3280           0      1908.012451  -2436.076660  -48272.28906     63.735184
    3281           0      2187.682617  -2188.383789  -48272.28906    121.612297
    3282           0      2435.465332  -1908.792969  -48272.28906    183.842880
    3283           0      2647.746582  -1601.380005  -48272.28906    196.299225
    3284           0      2821.434082  -1270.626709  -48272.28906    106.066559
    3285           0       186.795242  -3088.703125  -47896.38671    166.862167
    3286           0       557.659607  -3043.681641  -47896.38671    143.660782
    3287           0       920.396606  -2954.293457  -47896.38671    112.851929
    3288           0      1269.716919  -2821.843262  -47896.38671     84.153618
    3289           0      1600.529541  -2648.260742  -47896.38671     58.846867
    3290           0      1908.012451  -2436.076660  -47896.38671     62.090317
    3291           0      2187.682617  -2188.384033  -47896.38671    119.921036
    3292           0      2435.465088  -1908.793213  -47896.38671    182.953781
    3293           0      2647.746582  -1601.380005  -47896.38671    196.700989
    3294           0      2821.434082  -1270.626709  -47896.38671    108.322716
    3295           0       186.795227  -3088.703125  -47520.48437    169.723419
    3296           0       557.659607  -3043.681641  -47520.48437    146.732239
    3297           0       920.396606  -2954.293457  -47520.48437    115.981911
    3298           0      1269.716797  -2821.843750  -47520.48437     86.636574
    3299           0      1600.529541  -2648.260742  -47520.48437     59.785236
    3300           0      1908.012451  -2436.076660  -47520.48437     60.477562
    3301           0      2187.682617  -2188.384033  -47520.48437    117.977898
    3302           0      2435.464844  -1908.793213  -47520.48437    181.844147
    3303           0      2647.746582  -1601.380127  -47520.48437    197.081238
    3304           0      2821.434082  -1270.626709  -47520.48437    110.806450
    3305           0       186.795212  -3088.703125  -47144.57812    172.418365
    3306           0       557.659546  -3043.681641  -47144.57812    149.732071
    3307           0       920.396606  -2954.293457  -47144.57812    119.189346
    3308           0      1269.716797  -2821.843750  -47144.57812     89.368973
    3309           0      1600.529419  -2648.260742  -47144.57812     61.136547
    3310           0      1908.012329  -2436.076660  -47144.57812     58.977863
    3311           0      2187.682617  -2188.384033  -47144.57812    115.841209
    3312           0      2435.464844  -1908.793213  -47144.57812    180.526535
    3313           0      2647.746582  -1601.380127  -47144.57812    197.433121
    3314           0      2821.434082  -1270.626709  -47144.57812    113.509109
    3315           0       186.795197  -3088.703125  -46768.67187    174.951523
    3316           0       557.659546  -3043.681641  -46768.67187    152.662613
    3317           0       920.396545  -2954.293457  -46768.67187    122.473381
    3318           0      1269.716797  -2821.843750  -46768.67187     92.354317
    3319           0      1600.529297  -2648.260742  -46768.67187     62.959343
    3320           0      1908.012207  -2436.076904  -46768.67187     57.700665
    3321           0      2187.682617  -2188.384033  -46768.67187    113.495575
    3322           0      2435.464844  -1908.793213  -46768.67187    178.967285
    3323           0      2647.746582  -1601.380127  -46768.67187    197.775330
    3324           0      2821.434082  -1270.626709  -46768.67187    116.434364
    3325           0       186.795181  -3088.703125  -46392.76953    177.329422
    3326           0       557.659546  -3043.681641  -46392.76953    155.526443
    3327           0       920.396484  -2954.293457  -46392.76953    125.834091
    3328           0      1269.716675  -2821.843750  -46392.76953     95.600899
    3329           0      1600.529175  -2648.260742  -46392.76953     65.279358
    3330           0      1908.012085  -2436.076904  -46392.76953     56.779491
    3331           0      2187.682373  -2188.384277  -46392.76953    110.969246
    3332           0      2435.464844  -1908.793213  -46392.76953    177.222748
    3333           0      2647.746582  -1601.380127  -46392.76953    198.082367
    3334           0      2821.434082  -1270.626709  -46392.76953    119.576408
    3335           0       186.795181  -3088.703125  -46016.86718    179.559433
    3336           0       557.659424  -3043.681641  -46016.86718    158.324677
    3337           0       920.396423  -2954.293457  -46016.86718    129.271103
    3338           0      1269.716553  -2821.843750  -46016.86718     99.110428
    3339           0      1600.529053  -2648.260742  -46016.86718     68.116226
    3340           0      1908.012085  -2436.077148  -46016.86718     56.333729
    3341           0      2187.682373  -2188.384277  -46016.86718    108.376892
    3342           0      2435.464844  -1908.793335  -46016.86718    175.294479
    3343           0      2647.746582  -1601.380249  -46016.86718    198.341248
    3344           0      2821.434082  -1270.626709  -46016.86718    122.930710
    3345           0       186.795181  -3088.703125  -45640.96484    181.648712
    3346           0       557.659424  -3043.681641  -45640.96484    161.060440
    3347           0       920.396362  -2954.293457  -45640.96484    132.779572
    3348           0      1269.716553  -2821.843750  -45640.96484    102.878784
    3349           0      1600.529053  -2648.260742  -45640.96484     71.490051
    3350           0      1908.012085  -2436.077148  -45640.96484     56.514713
    3351           0      2187.682373  -2188.384277  -45640.96484    105.711769
    3352           0      2435.464844  -1908.793457  -45640.96484    173.157471
    3353           0      2647.746582  -1601.380249  -45640.96484    198.559082
    3354           0      2821.434082  -1270.626709  -45640.96484    126.501251
    3355           0       186.795166  -3088.703125  -45265.05859    183.607788
    3356           0       557.659424  -3043.681641  -45265.05859    163.735062
    3357           0       920.396362  -2954.293457  -45265.05859    136.356430
    3358           0      1269.716431  -2821.843750  -45265.05859    106.905128
    3359           0      1600.529053  -2648.260742  -45265.05859     75.393761
    3360           0      1908.011963  -2436.077148  -45265.05859     57.446075
    3361           0      2187.682129  -2188.384521  -45265.05859    103.073700
    3362           0      2435.464844  -1908.793457  -45265.05859    170.845490
    3363           0      2647.746582  -1601.380249  -45265.05859    198.720917
    3364           0      2821.434082  -1270.626709  -45265.05859    130.276688
    3365           0       186.795151  -3088.703125  -44889.15625    185.446594
    3366           0       557.659363  -3043.681641  -44889.15625    166.350464
    3367           0       920.396240  -2954.293457  -44889.15625    139.996918
    3368           0      1269.716431  -2821.843750  -44889.15625    111.181984
    3369           0      1600.528931  -2648.260986  -44889.15625     79.817726
    3370           0      1908.011719  -2436.077148  -44889.15625     59.231026
    3371           0      2187.682129  -2188.384521  -44889.15625    100.540474
    3372           0      2435.464844  -1908.793457  -44889.15625    168.358765
    3373           0      2647.746582  -1601.380249  -44889.15625    198.822784
    3374           0      2821.434082  -1270.626709  -44889.15625    134.251190
    3375           0       186.795135  -3088.703125  -44513.25000    187.176880
    3376           0       557.659302  -3043.681641  -44513.25000    168.909103
    3377           0       920.396179  -2954.293457  -44513.25000    143.694824
    3378           0      1269.716309  -2821.843750  -44513.25000    115.699387
    3379           0      1600.528931  -2648.261230  -44513.25000     84.742393
    3380           0      1908.011719  -2436.077148  -44513.25000     61.935894
    3381           0      2187.682129  -2188.384521  -44513.25000     98.214874
    3382           0      2435.464844  -1908.793457  -44513.25000    165.722504
    3383           0      2647.746582  -1601.380371  -44513.25000    198.850677
    3384           0      2821.433838  -1270.626831  -44513.25000    138.418182
    3385           0       186.795120  -3088.703125  -44137.35156    188.809906
    3386           0       557.659302  -3043.681641  -44137.35156    171.412872
    3387           0       920.396179  -2954.293457  -44137.35156    147.443771
    3388           0      1269.716309  -2821.843750  -44137.35156    120.447021
    3389           0      1600.528809  -2648.261230  -44137.35156     90.145134
    3390           0      1908.011719  -2436.077148  -44137.35156     65.584427
    3391           0      2187.682129  -2188.384521  -44137.35156     96.223915
    3392           0      2435.464844  -1908.793701  -44137.35156    162.962128
    3393           0      2647.746338  -1601.380371  -44137.35156    198.793991
    3394           0      2821.433838  -1270.626831  -44137.35156    142.760208
    3395           0       186.795120  -3088.703125  -43761.44531    190.360367
    3396           0       557.659302  -3043.681641  -43761.44531    173.865372
    3397           0       920.396179  -2954.293457  -43761.44531    151.235336
    3398           0      1269.716309  -2821.843750  -43761.44531    125.409622
    3399           0      1600.528809  -2648.261230  -43761.44531     95.999428
    3400           0      1908.011719  -2436.077148  -43761.44531     70.166298
    3401           0      2187.682129  -2188.384521  -43761.44531     94.711174
    3402           0      2435.464600  -1908.793701  -43761.44531    160.109741
    3403           0      2647.746338  -1601.380371  -43761.44531    198.639633
    3404           0      2821.433838  -1270.626831  -43761.44531    147.262924
    3405           0       186.795105  -3088.703125  -43385.54296    191.841324
    3406           0       557.659241  -3043.681641  -43385.54296    176.268173
    3407           0       920.396118  -2954.293457  -43385.54296    155.061783
    3408           0      1269.716187  -2821.843750  -43385.54296    130.573746
    3409           0      1600.528687  -2648.261230  -43385.54296    102.276497
    3410           0      1908.011719  -2436.077393  -43385.54296     75.638870
    3411           0      2187.681885  -2188.384766  -43385.54296     93.836990
    3412           0      2435.464600  -1908.793701  -43385.54296    157.209549
    3413           0      2647.746338  -1601.380371  -43385.54296    198.374451
    3414           0      2821.433838  -1270.626831  -43385.54296    151.906097
    3415           0       186.795090  -3088.703125  -43009.64062    193.267899
    3416           0       557.659180  -3043.681641  -43009.64062    178.624527
    3417           0       920.395996  -2954.293457  -43009.64062    158.912323
    3418           0      1269.716064  -2821.843750  -43009.64062    135.918686
    3419           0      1600.528564  -2648.261230  -43009.64062    108.944412
    3420           0      1908.011719  -2436.077393  -43009.64062     81.949623
    3421           0      2187.681885  -2188.384766  -43009.64062     93.768120
    3422           0      2435.464600  -1908.793701  -43009.64062    154.319870
    3423           0      2647.746338  -1601.380371  -43009.64062    197.984009
    3424           0      2821.433838  -1270.626831  -43009.64062    156.661194
    3425           0       186.795074  -3088.703125  -42633.73437    194.657288
    3426           0       557.659180  -3043.681641  -42633.73437    180.938049
    3427           0       920.395996  -2954.293457  -42633.73437    162.777390
    3428           0      1269.716064  -2821.843750  -42633.73437    141.426636
    3429           0      1600.528564  -2648.261230  -42633.73437    115.977783
    3430           0      1908.011475  -2436.077637  -42633.73437     89.028542
    3431           0      2187.681641  -2188.384766  -42633.73437     94.668869
    3432           0      2435.464600  -1908.793701  -42633.73437    151.511887
    3433           0      2647.746338  -1601.380615  -42633.73437    197.456497
    3434           0      2821.433838  -1270.626831  -42633.73437    161.492477
    3435           0       186.795059  -3088.703125  -42257.82812    196.019775
    3436           0       557.659119  -3043.681641  -42257.82812    183.214523
    3437           0       920.395996  -2954.293457  -42257.82812    166.647415
    3438           0      1269.716064  -2821.843750  -42257.82812    147.079605
    3439           0      1600.528564  -2648.261230  -42257.82812    123.338966
    3440           0      1908.011475  -2436.077637  -42257.82812     96.820435
    3441           0      2187.681641  -2188.384766  -42257.82812     96.674721
    3442           0      2435.464600  -1908.793823  -42257.82812    148.876404
    3443           0      2647.746338  -1601.380615  -42257.82812    196.780609
    3444           0      2821.433838  -1270.626831  -42257.82812    166.360092
    3445           0       186.795059  -3088.703125  -41881.92968    197.372253
    3446           0       557.659119  -3043.681641  -41881.92968    185.459351
    3447           0       920.395935  -2954.293457  -41881.92968    170.512497
    3448           0      1269.715820  -2821.843750  -41881.92968    152.850769
    3449           0      1600.528442  -2648.261230  -41881.92968    131.009827
    3450           0      1908.011475  -2436.077637  -41881.92968    105.265167
    3451           0      2187.681641  -2188.384766  -41881.92968     99.902039
    3452           0      2435.464600  -1908.793823  -41881.92968    146.520172
    3453           0      2647.746338  -1601.380615  -41881.92968    195.950500
    3454           0      2821.433838  -1270.626831  -41881.92968    171.212921
    3455           0       186.795044  -3088.703125  -41506.02734    198.731216
    3456           0       557.659058  -3043.681641  -41506.02734    187.677460
    3457           0       920.395874  -2954.293457  -41506.02734    174.366364
    3458           0      1269.715820  -2821.843750  -41506.02734    158.717636
    3459           0      1600.528442  -2648.261230  -41506.02734    138.946732
    3460           0      1908.011475  -2436.077637  -41506.02734    114.294502
    3461           0      2187.681641  -2188.384766  -41506.02734    104.426727
    3462           0      2435.464600  -1908.793823  -41506.02734    144.593277
    3463           0      2647.746338  -1601.380615  -41506.02734    194.959000
    3464           0      2821.433838  -1270.626831  -41506.02734    175.993408
    3465           0       186.795029  -3088.703125  -41130.12109    200.105286
    3466           0       557.659058  -3043.681641  -41130.12109    189.877411
    3467           0       920.395874  -2954.293457  -41130.12109    178.199661
    3468           0      1269.715820  -2821.843750  -41130.12109    164.658905
    3469           0      1600.528320  -2648.261230  -41130.12109    147.119736
    3470           0      1908.011475  -2436.077637  -41130.12109    123.867462
    3471           0      2187.681641  -2188.384766  -41130.12109    110.244942
    3472           0      2435.464355  -1908.793945  -41130.12109    143.254807
    3473           0      2647.746094  -1601.380615  -41130.12109    193.813614
    3474           0      2821.433838  -1270.626831  -41130.12109    180.628433
    3475           0       186.795029  -3088.703125  -40754.21875    201.506393
    3476           0       557.659058  -3043.681641  -40754.21875    192.067276
    3477           0       920.395752  -2954.293945  -40754.21875    182.008713
    3478           0      1269.715820  -2821.843994  -40754.21875    170.652359
    3479           0      1600.528320  -2648.261230  -40754.21875    155.495941
    3480           0      1908.011230  -2436.077637  -40754.21875    133.925949
    3481           0      2187.681641  -2188.385254  -40754.21875    117.346848
    3482           0      2435.464355  -1908.793945  -40754.21875    142.686829
    3483           0      2647.746094  -1601.380615  -40754.21875    192.531067
    3484           0      2821.433838  -1270.626831  -40754.21875    185.041519
    3485           0       186.795013  -3088.703125  -40378.31250    202.943130
    3486           0       557.658997  -3043.681641  -40378.31250    194.255554
    3487           0       920.395691  -2954.293945  -40378.31250    185.792297
    3488           0      1269.715698  -2821.843994  -40378.31250    176.670822
    3489           0      1600.528076  -2648.261475  -40378.31250    164.038757
    3490           0      1908.011108  -2436.077881  -40378.31250    144.422058
    3491           0      2187.681641  -2188.385254  -40378.31250    125.688568
    3492           0      2435.464355  -1908.793945  -40378.31250    143.090378
    3493           0      2647.746094  -1601.380615  -40378.31250    191.146179
    3494           0      2821.433838  -1270.626831  -40378.31250    189.136108
    3495           0       186.794998  -3088.703125  -40002.40625    204.422852
    3496           0       557.658936  -3043.681641  -40002.40625    196.451248
    3497           0       920.395569  -2954.293945  -40002.40625    189.548172
    3498           0      1269.715576  -2821.843994  -40002.40625    182.698318
    3499           0      1600.528076  -2648.261475  -40002.40625    172.711792
    3500           0      1908.011108  -2436.077881  -40002.40625    155.309799
    3501           0      2187.681641  -2188.385254  -40002.40625    135.187469
    3502           0      2435.464355  -1908.794067  -40002.40625    144.679123
    3503           0      2647.746094  -1601.380615  -40002.40625    189.710724
    3504           0      2821.433838  -1270.626953  -40002.40625    192.816208
    3505           0       186.794983  -3088.703125  -39626.50781    205.949890
    3506           0       557.658936  -3043.681641  -39626.50781    198.663193
    3507           0       920.395569  -2954.293945  -39626.50781    193.281693
    3508           0      1269.715576  -2821.844238  -39626.50781    188.711044
    3509           0      1600.528076  -2648.261719  -39626.50781    181.479050
    3510           0      1908.010986  -2436.077881  -39626.50781    166.535248
    3511           0      2187.681396  -2188.385254  -39626.50781    145.773514
    3512           0      2435.464355  -1908.794189  -39626.50781    147.647552
    3513           0      2647.746094  -1601.380615  -39626.50781    188.312332
    3514           0      2821.433838  -1270.626953  -39626.50781    195.965775
    3515           0       186.794968  -3088.703125  -39250.60156    207.526855
    3516           0       557.658936  -3043.681641  -39250.60156    200.900330
    3517           0       920.395569  -2954.293945  -39250.60156    196.996109
    3518           0      1269.715576  -2821.844238  -39250.60156    194.698196
    3519           0      1600.528076  -2648.261719  -39250.60156    190.299728
    3520           0      1908.010986  -2436.077881  -39250.60156    178.057617
    3521           0      2187.681396  -2188.385254  -39250.60156    157.341553
    3522           0      2435.464355  -1908.794189  -39250.60156    152.181122
    3523           0      2647.746094  -1601.380737  -39250.60156    187.068436
    3524           0      2821.433838  -1270.626953  -39250.60156    198.479401
    3525           0       186.794952  -3088.703125  -38874.69921    209.154175
    3526           0       557.658813  -3043.681641  -38874.69921    203.168945
    3527           0       920.395508  -2954.293945  -38874.69921    200.702301
    3528           0      1269.715454  -2821.844238  -38874.69921    200.643509
    3529           0      1600.527954  -2648.261719  -38874.69921    199.142319
    3530           0      1908.010986  -2436.077881  -38874.69921    189.812469
    3531           0      2187.681396  -2188.385254  -38874.69921    169.823135
    3532           0      2435.464355  -1908.794189  -38874.69921    158.405502
    3533           0      2647.746094  -1601.380737  -38874.69921    186.151413
    3534           0      2821.433838  -1270.626953  -38874.69921    200.235657
    3535           0       186.794937  -3088.703125  -38498.79687    210.831848
    3536           0       557.658813  -3043.681641  -38498.79687    205.475815
    3537           0       920.395508  -2954.293945  -38498.79687    204.406311
    3538           0      1269.715332  -2821.844238  -38498.79687    206.547546
    3539           0      1600.527954  -2648.261719  -38498.79687    207.965652
    3540           0      1908.010864  -2436.078125  -38498.79687    201.762146
    3541           0      2187.681396  -2188.385254  -38498.79687    183.096573
    3542           0      2435.464355  -1908.794189  -38498.79687    166.424210
    3543           0      2647.746094  -1601.380737  -38498.79687    185.779541
    3544           0      2821.433838  -1270.626953  -38498.79687    201.146759
    3545           0       186.794937  -3088.703125  -38122.89062    212.557907
    3546           0       557.658813  -3043.681641  -38122.89062    207.823227
    3547           0       920.395386  -2954.293945  -38122.89062    208.121231
    3548           0      1269.715332  -2821.844238  -38122.89062    212.402664
    3549           0      1600.527832  -2648.261719  -38122.89062    216.748520
    3550           0      1908.010742  -2436.078125  -38122.89062    213.831177
    3551           0      2187.681152  -2188.385254  -38122.89062    197.112671
    3552           0      2435.464355  -1908.794189  -38122.89062    176.248245
    3553           0      2647.746094  -1601.380737  -38122.89062    186.235214
    3554           0      2821.433838  -1270.626953  -38122.89062    201.126175
    3555           0       186.794922  -3088.703125  -37746.98828    214.331284
    3556           0       557.658752  -3043.681641  -37746.98828    210.215179
    3557           0       920.395386  -2954.293945  -37746.98828    211.852707
    3558           0      1269.715332  -2821.844238  -37746.98828    218.223602
    3559           0      1600.527832  -2648.261719  -37746.98828    225.456177
    3560           0      1908.010742  -2436.078125  -37746.98828    225.984329
    3561           0      2187.681152  -2188.385254  -37746.98828    211.717117
    3562           0      2435.464111  -1908.794312  -37746.98828    187.895584
    3563           0      2647.746094  -1601.380859  -37746.98828    187.860428
    3564           0      2821.433838  -1270.626953  -37746.98828    200.165390
    3565           0       186.794907  -3088.703125  -37371.08593    216.148987
    3566           0       557.658752  -3043.681641  -37371.08593    212.649765
    3567           0       920.395386  -2954.293945  -37371.08593    215.611008
    3568           0      1269.715210  -2821.844238  -37371.08593    224.007248
    3569           0      1600.527710  -2648.261719  -37371.08593    234.089859
    3570           0      1908.010620  -2436.078125  -37371.08593    238.145569
    3571           0      2187.681152  -2188.385498  -37371.08593    226.896973
    3572           0      2435.464111  -1908.794434  -37371.08593    201.247971
    3573           0      2647.746094  -1601.380859  -37371.08593    191.012253
    3574           0      2821.433838  -1270.626953  -37371.08593    198.302002
    3575           0       186.794907  -3088.703125  -36995.18359    218.010788
    3576           0       557.658752  -3043.681641  -36995.18359    215.131149
    3577           0       920.395325  -2954.293945  -36995.18359    219.397964
    3578           0      1269.715088  -2821.844238  -36995.18359    229.779572
    3579           0      1600.527588  -2648.261719  -36995.18359    242.621582
    3580           0      1908.010498  -2436.078125  -36995.18359    250.278198
    3581           0      2187.681152  -2188.385498  -36995.18359    242.441330
    3582           0      2435.463867  -1908.794434  -36995.18359    216.302734
    3583           0      2647.746094  -1601.380859  -36995.18359    196.136261
    3584           0      2821.433838  -1270.626953  -36995.18359    195.727600
    3585           0       186.794891  -3088.703125  -36619.27734    219.911636
    3586           0       557.658691  -3043.681641  -36619.27734    217.651535
    3587           0       920.395264  -2954.293945  -36619.27734    223.218628
    3588           0      1269.715088  -2821.844238  -36619.27734    235.531769
    3589           0      1600.527466  -2648.261719  -36619.27734    251.087448
    3590           0      1908.010498  -2436.078125  -36619.27734    262.343933
    3591           0      2187.680908  -2188.385742  -36619.27734    258.382172
    3592           0      2435.463867  -1908.794434  -36619.27734    232.723953
    3593           0      2647.746094  -1601.380859  -36619.27734    203.450989
    3594           0      2821.433838  -1270.626953  -36619.27734    192.758865
    3595           0       186.794876  -3088.703125  -36243.37500    221.862946
    3596           0       557.658630  -3043.681641  -36243.37500    220.225464
    3597           0       920.395264  -2954.293945  -36243.37500    227.080261
    3598           0      1269.715088  -2821.844238  -36243.37500    241.303986
    3599           0      1600.527466  -2648.261963  -36243.37500    259.472168
    3600           0      1908.010498  -2436.078613  -36243.37500    274.321655
    3601           0      2187.680908  -2188.385742  -36243.37500    274.500244
    3602           0      2435.463867  -1908.794434  -36243.37500    250.790985
    3603           0      2647.746094  -1601.380859  -36243.37500    213.580551
    3604           0      2821.433838  -1270.626953  -36243.37500    189.965347
    3605           0       186.794861  -3088.703125  -35867.46875    223.816650
    3606           0       557.658630  -3043.681641  -35867.46875    222.790649
    3607           0       920.395142  -2954.293945  -35867.46875    230.937454
    3608           0      1269.714966  -2821.844238  -35867.46875    247.016006
    3609           0      1600.527466  -2648.261963  -35867.46875    267.747864
    3610           0      1908.010498  -2436.078613  -35867.46875    286.083191
    3611           0      2187.680908  -2188.385742  -35867.46875    290.612915
    3612           0      2435.463867  -1908.794678  -35867.46875    269.299408
    3613           0      2647.746094  -1601.380981  -35867.46875    225.851303
    3614           0      2821.433838  -1270.626953  -35867.46875    188.064148
    3615           0       186.794846  -3088.703125  -35491.57031    225.970200
    3616           0       557.658569  -3043.681641  -35491.57031    225.563400
    3617           0       920.395081  -2954.293945  -35491.57031    235.023209
    3618           0      1269.714844  -2821.844238  -35491.57031    253.000977
    3619           0      1600.527344  -2648.261963  -35491.57031    276.286774
    3620           0      1908.010376  -2436.078613  -35491.57031    298.251221
    3621           0      2187.680908  -2188.385742  -35491.57031    307.513184
    3622           0      2435.463867  -1908.794678  -35491.57031    290.407440
    3623           0      2647.746094  -1601.381104  -35491.57031    242.129150
    3624           0      2821.433838  -1270.626953  -35491.57031    188.066544
    3625           0       186.794846  -3088.703125  -35115.66406    227.601913
    3626           0       557.658569  -3043.681641  -35115.66406    227.800598
    3627           0       920.395020  -2954.293945  -35115.66406    238.459305
    3628           0      1269.714844  -2821.844238  -35115.66406    258.140961
    3629           0      1600.527344  -2648.261963  -35115.66406    283.664978
    3630           0      1908.010132  -2436.078613  -35115.66406    308.696869
    3631           0      2187.680908  -2188.385742  -35115.66406    322.098846
    3632           0      2435.463867  -1908.794678  -35115.66406    308.427002
    3633           0      2647.746094  -1601.381104  -35115.66406    257.985107
    3634           0      2821.433838  -1270.626953  -35115.66406    190.611633
    3635           0       186.794830  -3088.703125  -34739.75781    230.757584
    3636           0       557.658447  -3043.681641  -34739.75781    231.609116
    3637           0       920.394958  -2954.293945  -34739.75781    243.717270
    3638           0      1269.714722  -2821.844238  -34739.75781    265.615234
    3639           0      1600.527222  -2648.261963  -34739.75781    293.990448
    3640           0      1908.010132  -2436.078613  -34739.75781    323.200623
    3641           0      2187.680664  -2188.385742  -34739.75781    342.300995
    3642           0      2435.463867  -1908.794678  -34739.75781    334.730103
    3643           0      2647.746094  -1601.381104  -34739.75781    281.557251
    3644           0      2821.433838  -1270.626953  -34739.75781    196.384979
    3645           0       186.794815  -3088.703125  -34363.85546    232.335587
    3646           0       557.658447  -3043.681641  -34363.85546    233.703842
    3647           0       920.394958  -2954.293945  -34363.85546    246.836273
    3648           0      1269.714722  -2821.844482  -34363.85546    270.059479
    3649           0      1600.527100  -2648.262207  -34363.85546    300.248779
    3650           0      1908.010132  -2436.078613  -34363.85546    331.530579
    3651           0      2187.680664  -2188.385742  -34363.85546    354.202301
    3652           0      2435.463867  -1908.794678  -34363.85546    350.125092
    3653           0      2647.746094  -1601.381104  -34363.85546    299.239044
    3654           0      2821.433838  -1270.626953  -34363.85546    206.544250
    3655           0       186.794800  -3088.703125  -33987.95312    223.745193
    3656           0       557.658447  -3043.681641  -33987.95312    225.822845
    3657           0       920.394897  -2954.293945  -33987.95312    239.922546
    3658           0      1269.714722  -2821.844482  -33987.95312    264.418610
    3659           0      1600.527100  -2648.262207  -33987.95312    296.416199
    3660           0      1908.010010  -2436.078613  -33987.95312    330.734558
    3661           0      2187.680664  -2188.385986  -33987.95312    358.591766
    3662           0      2435.463867  -1908.794678  -33987.95312    362.518372
    3663           0      2647.746094  -1601.381104  -33987.95312    313.673645
    3664           0      2821.433838  -1270.626953  -33987.95312    207.685501
    3665           0      2954.035645   -921.190063  -64812.04687     65.896614
    3666           0      3043.581055   -558.149414  -64812.04687    158.748322
    3667           0      3088.683105   -186.959442  -64812.04687    188.654327
    3668           0      2954.035645   -921.189941  -64436.14062     64.434326
    3669           0      3043.581299   -558.149048  -64436.14062    147.758057
    3670           0      3088.683105   -186.959229  -64436.14062    177.411362
    3671           0      2954.035645   -921.189941  -64060.24218     62.840340
    3672           0      3043.581299   -558.149048  -64060.24218    135.916473
    3673           0      3088.683105   -186.959229  -64060.24218    166.002411
    3674           0      2954.035645   -921.189941  -63684.33984     63.992374
    3675           0      3043.581299   -558.149048  -63684.33984    119.993050
    3676           0      3088.683105   -186.959244  -63684.33984    147.501373
    3677           0      2954.035645   -921.189941  -63308.43359     70.083328
    3678           0      3043.581299   -558.149048  -63308.43359    111.566689
    3679           0      3088.683105   -186.959259  -63308.43359    134.559204
    3680           0      2954.035645   -921.189941  -62932.53125     77.251488
    3681           0      3043.581299   -558.149048  -62932.53125    104.829346
    3682           0      3088.683105   -186.959259  -62932.53125    120.151054
    3683           0      2954.035645   -921.189941  -62556.62500     84.853081
    3684           0      3043.581299   -558.149048  -62556.62500    103.353722
    3685           0      3088.683105   -186.959259  -62556.62500    108.431541
    3686           0      2954.035645   -921.189941  -62180.72656     91.433937
    3687           0      3043.581299   -558.149048  -62180.72656    105.213898
    3688           0      3088.683105   -186.959259  -62180.72656     98.530022
    3689           0      2954.035645   -921.189941  -61804.82421     96.703506
    3690           0      3043.581299   -558.149048  -61804.82421    110.108688
    3691           0      3088.683105   -186.959259  -61804.82421     91.679085
    3692           0      2954.035645   -921.189941  -61428.91796    100.390114
    3693           0      3043.581299   -558.149109  -61428.91796    116.765617
    3694           0      3088.683105   -186.959290  -61428.91796     88.087753
    3695           0      2954.035645   -921.189941  -61053.01171    102.553360
    3696           0      3043.581299   -558.149170  -61053.01171    124.408730
    3697           0      3088.683105   -186.959305  -61053.01171     87.920448
    3698           0      2954.035645   -921.189941  -60677.10937    103.288483
    3699           0      3043.581299   -558.149170  -60677.10937    132.365143
    3700           0      3088.683105   -186.959305  -60677.10937     90.799751
    3701           0      2954.035645   -921.189941  -60301.20312    102.786613
    3702           0      3043.581299   -558.149170  -60301.20312    140.226425
    3703           0      3088.683105   -186.959305  -60301.20312     96.088661
    3704           0      2954.035645   -921.189941  -59925.29687    101.244881
    3705           0      3043.581299   -558.149170  -59925.29687    147.729004
    3706           0      3088.683105   -186.959305  -59925.29687    103.065338
    3707           0      2954.035645   -921.190002  -59549.39843     98.883446
    3708           0      3043.581299   -558.149170  -59549.39453    154.728317
    3709           0      3088.683105   -186.959305  -59549.39453    111.094078
    3710           0      2954.035645   -921.190002  -59173.49609     95.913727
    3711           0      3043.581299   -558.149170  -59173.49609    161.154449
    3712           0      3088.683105   -186.959320  -59173.49609    119.685905
    3713           0      2954.035645   -921.190002  -58797.59375     92.545456
    3714           0      3043.581299   -558.149231  -58797.59375    166.985779
    3715           0      3088.683105   -186.959335  -58797.59375    128.487518
    3716           0      2954.035645   -921.190002  -58421.68750     88.974640
    3717           0      3043.581299   -558.149231  -58421.69140    172.233688
    3718           0      3088.683105   -186.959335  -58421.68750    137.255905
    3719           0      2954.035645   -921.190002  -58045.78125     85.386726
    3720           0      3043.581299   -558.149231  -58045.78125    176.927048
    3721           0      3088.683105   -186.959335  -58045.78125    145.826767
    3722           0      2954.035645   -921.190002  -57669.87890     81.951111
    3723           0      3043.581299   -558.149231  -57669.87890    181.106857
    3724           0      3088.683105   -186.959335  -57669.87890    154.093414
    3725           0      2954.035645   -921.190002  -57293.97656     78.820412
    3726           0      3043.581299   -558.149231  -57293.97656    184.818665
    3727           0      3088.683105   -186.959335  -57293.97656    161.987808
    3728           0      2954.035645   -921.190002  -56918.07421     76.125595
    3729           0      3043.581299   -558.149231  -56918.07421    188.111053
    3730           0      3088.683105   -186.959335  -56918.07421    169.469055
    3731           0      2954.035645   -921.190002  -56542.17187     73.971237
    3732           0      3043.581299   -558.149231  -56542.17187    191.031662
    3733           0      3088.683105   -186.959351  -56542.17187    176.515625
    3734           0      2954.035645   -921.190002  -56166.26171     72.430977
    3735           0      3043.581299   -558.149231  -56166.26562    193.626389
    3736           0      3088.683105   -186.959366  -56166.26562    183.118576
    3737           0      2954.035645   -921.190002  -55790.35937     71.542442
    3738           0      3043.581299   -558.149231  -55790.35937    195.937881
    3739           0      3088.683105   -186.959366  -55790.35937    189.279785
    3740           0      2954.035645   -921.190002  -55414.46093     71.308144
    3741           0      3043.581299   -558.149231  -55414.46093    198.006439
    3742           0      3088.683105   -186.959366  -55414.45703    195.004761
    3743           0      2954.035645   -921.190002  -55038.55468     71.695587
    3744           0      3043.581299   -558.149231  -55038.55468    199.869598
    3745           0      3088.683105   -186.959366  -55038.55468    200.303497
    3746           0      2954.035645   -921.190063  -54662.65234     72.649582
    3747           0      3043.581299   -558.149292  -54662.64843    201.558411
    3748           0      3088.683105   -186.959366  -54662.64843    205.190414
    3749           0      2954.035645   -921.190063  -54286.74609     74.090897
    3750           0      3043.581299   -558.149292  -54286.74609    203.106125
    3751           0      3088.683105   -186.959381  -54286.74609    209.680908
    3752           0      2954.035645   -921.190063  -53910.84375     75.941933
    3753           0      3043.581299   -558.149292  -53910.84375    204.537979
    3754           0      3088.683105   -186.959396  -53910.84375    213.787506
    3755           0      2954.035645   -921.190063  -53534.93750     78.117210
    3756           0      3043.581299   -558.149292  -53534.94140    205.877075
    3757           0      3088.683105   -186.959396  -53534.93750    217.531021
    3758           0      2954.035645   -921.190063  -53159.03906     80.540024
    3759           0      3043.581299   -558.149292  -53159.03906    207.142746
    3760           0      3088.683105   -186.959396  -53159.03906    220.923950
    3761           0      2954.035645   -921.190063  -52783.13281     83.144402
    3762           0      3043.581299   -558.149292  -52783.13281    208.356094
    3763           0      3088.683105   -186.959396  -52783.13281    223.982452
    3764           0      2954.035645   -921.190063  -52407.22656     85.871872
    3765           0      3043.581299   -558.149292  -52407.22656    209.532257
    3766           0      3088.683105   -186.959396  -52407.22656    226.721313
    3767           0      2954.035645   -921.190063  -52031.32421     88.677597
    3768           0      3043.581299   -558.149292  -52031.32421    210.685379
    3769           0      3088.683105   -186.959396  -52031.32421    229.154999
    3770           0      2954.035645   -921.190063  -51655.42187     91.525558
    3771           0      3043.581299   -558.149292  -51655.42187    211.827576
    3772           0      3088.683105   -186.959412  -51655.42187    231.296677
    3773           0      2954.035645   -921.190063  -51279.51562     94.390343
    3774           0      3043.581299   -558.149353  -51279.51562    212.969086
    3775           0      3088.683105   -186.959427  -51279.51562    233.159561
    3776           0      2954.035645   -921.190063  -50903.60937     97.254356
    3777           0      3043.581299   -558.149353  -50903.60937    214.118912
    3778           0      3088.683105   -186.959427  -50903.60937    234.755356
    3779           0      2954.035645   -921.190063  -50527.71093    100.107986
    3780           0      3043.581299   -558.149353  -50527.70703    215.284729
    3781           0      3088.683105   -186.959427  -50527.71093    236.095062
    3782           0      2954.035645   -921.190063  -50151.80468    102.947922
    3783           0      3043.581299   -558.149353  -50151.80078    216.472672
    3784           0      3088.683105   -186.959427  -50151.80468    237.189545
    3785           0      2954.035645   -921.190063  -49775.90234    105.776863
    3786           0      3043.581299   -558.149353  -49775.90234    217.687576
    3787           0      3088.683105   -186.959427  -49775.90234    238.049652
    3788           0      2954.035645   -921.190063  -49400.00000    108.602364
    3789           0      3043.581299   -558.149414  -49400.00000    218.933548
    3790           0      3088.683105   -186.959442  -49400.00000    238.684860
    3791           0      2954.035645   -921.190063  -49024.09375    111.436592
    3792           0      3043.581299   -558.149414  -49024.09375    220.213074
    3793           0      3088.683105   -186.959473  -49024.09375    239.105591
    3794           0      2954.035645   -921.190063  -48648.18750    114.295280
    3795           0      3043.581299   -558.149414  -48648.18359    221.528152
    3796           0      3088.683105   -186.959473  -48648.18750    239.321289
    3797           0      2954.035645   -921.190063  -48272.28906    117.197334
    3798           0      3043.581299   -558.149414  -48272.28515    222.879974
    3799           0      3088.683105   -186.959473  -48272.28906    239.341339
    3800           0      2954.035645   -921.190063  -47896.38671    120.165291
    3801           0      3043.581299   -558.149414  -47896.38281    224.268295
    3802           0      3088.683105   -186.959473  -47896.38281    239.176498
    3803           0      2954.035645   -921.190063  -47520.47656    123.223343
    3804           0      3043.581299   -558.149414  -47520.47656    225.692276
    3805           0      3088.683105   -186.959473  -47520.47656    238.837555
    3806           0      2954.035645   -921.190063  -47144.57812    126.395149
    3807           0      3043.581299   -558.149414  -47144.57812    227.149719
    3808           0      3088.683105   -186.959488  -47144.57812    238.335556
    3809           0      2954.035645   -921.190063  -46768.67968    129.707703
    3810           0      3043.581299   -558.149414  -46768.68359    228.639816
    3811           0      3088.683105   -186.959503  -46768.67968    237.682663
    3812           0      2954.035645   -921.190063  -46392.77343    133.191299
    3813           0      3043.581299   -558.149414  -46392.77343    230.157944
    3814           0      3088.683105   -186.959503  -46392.77343    236.895264
    3815           0      2954.035645   -921.190063  -46016.86718    136.869064
    3816           0      3043.581299   -558.149414  -46016.86328    231.699905
    3817           0      3088.683105   -186.959503  -46016.86718    235.989609
    3818           0      2954.035645   -921.190063  -45640.96484    140.766617
    3819           0      3043.581055   -558.149475  -45640.96093    233.260315
    3820           0      3088.683105   -186.959503  -45640.96484    234.986420
    3821           0      2954.035645   -921.190063  -45265.05859    144.905884
    3822           0      3043.581055   -558.149475  -45265.05468    234.833710
    3823           0      3088.683105   -186.959503  -45265.06250    233.908722
    3824           0      2954.035645   -921.190063  -44889.15625    149.308365
    3825           0      3043.581055   -558.149475  -44889.15234    236.415070
    3826           0      3088.683105   -186.959503  -44889.15625    232.783127
    3827           0      2954.035645   -921.190063  -44513.25000    153.992020
    3828           0      3043.581055   -558.149475  -44513.25390    237.995331
    3829           0      3088.683105   -186.959518  -44513.25000    231.645905
    3830           0      2954.035645   -921.190063  -44137.35156    158.964218
    3831           0      3043.581055   -558.149536  -44137.34765    239.569717
    3832           0      3088.683105   -186.959534  -44137.34765    230.533920
    3833           0      2954.035645   -921.190063  -43761.44531    164.233627
    3834           0      3043.581055   -558.149536  -43761.44140    241.132919
    3835           0      3088.683105   -186.959534  -43761.44140    229.495407
    3836           0      2954.035645   -921.190063  -43385.53906    169.799683
    3837           0      3043.581055   -558.149536  -43385.53906    242.673843
    3838           0      3088.683105   -186.959534  -43385.53906    228.586945
    3839           0      2954.035645   -921.190063  -43009.64062    175.652084
    3840           0      3043.581055   -558.149536  -43009.63671    244.190536
    3841           0      3088.683105   -186.959534  -43009.63671    227.875610
    3842           0      2954.035645   -921.190063  -42633.73437    181.775116
    3843           0      3043.581055   -558.149536  -42633.73828    245.680298
    3844           0      3088.683105   -186.959534  -42633.73437    227.436905
    3845           0      2954.035645   -921.190063  -42257.83203    188.142197
    3846           0      3043.581055   -558.149536  -42257.83593    247.143753
    3847           0      3088.683105   -186.959549  -42257.83593    227.360016
    3848           0      2954.035645   -921.190063  -41881.92578    194.719620
    3849           0      3043.581055   -558.149536  -41881.92187    248.586182
    3850           0      3088.683105   -186.959564  -41881.92968    227.745010
    3851           0      2954.035645   -921.190125  -41506.02343    201.458237
    3852           0      3043.581055   -558.149536  -41506.01953    250.019592
    3853           0      3088.683105   -186.959564  -41506.02343    228.705795
    3854           0      2954.035645   -921.190125  -41130.12500    208.304169
    3855           0      3043.581055   -558.149536  -41130.12890    251.461868
    3856           0      3088.683105   -186.959564  -41130.12500    230.362473
    3857           0      2954.035645   -921.190125  -40754.21875    215.181961
    3858           0      3043.581055   -558.149536  -40754.22656    252.949219
    3859           0      3088.683105   -186.959564  -40754.21875    232.844620
    3860           0      2954.035645   -921.190125  -40378.31640    222.014053
    3861           0      3043.581055   -558.149536  -40378.31640    254.527756
    3862           0      3088.683105   -186.959564  -40378.31640    236.282120
    3863           0      2954.035645   -921.190125  -40002.40625    228.705551
    3864           0      3043.581055   -558.149536  -40002.41015    256.262573
    3865           0      3088.683105   -186.959564  -40002.40625    240.808044
    3866           0      2954.035645   -921.190125  -39626.50390    235.156113
    3867           0      3043.581055   -558.149536  -39626.50000    258.241943
    3868           0      3088.683105   -186.959579  -39626.50390    246.536728
    3869           0      2954.035645   -921.190125  -39250.59765    241.252869
    3870           0      3043.581055   -558.149597  -39250.59375    260.579803
    3871           0      3088.683105   -186.959595  -39250.59765    253.578918
    3872           0      2954.035645   -921.190125  -38874.69921    246.886597
    3873           0      3043.581055   -558.149597  -38874.69921    263.416199
    3874           0      3088.683105   -186.959595  -38874.69921    262.004395
    3875           0      2954.035645   -921.190125  -38498.80078    251.942429
    3876           0      3043.581055   -558.149597  -38498.80468    266.925110
    3877           0      3088.683105   -186.959595  -38498.80078    271.877167
    3878           0      2954.035645   -921.190125  -38122.89453    256.331238
    3879           0      3043.581055   -558.149597  -38122.89453    271.292053
    3880           0      3088.683105   -186.959595  -38122.89453    283.191315
    3881           0      2954.035645   -921.190125  -37746.98828    259.972076
    3882           0      3043.581055   -558.149597  -37746.98828    276.749237
    3883           0      3088.683105   -186.959595  -37746.98828    295.951691
    3884           0      2954.035645   -921.190125  -37371.08593    262.850464
    3885           0      3043.581055   -558.149658  -37371.08203    283.468842
    3886           0      3088.683105   -186.959610  -37371.08203    310.038025
    3887           0      2954.035645   -921.190125  -36995.17968    264.986572
    3888           0      3043.581055   -558.149658  -36995.17187    291.731232
    3889           0      3088.683105   -186.959625  -36995.17578    325.433563
    3890           0      2954.035645   -921.190186  -36619.27734    266.507294
    3891           0      3043.581055   -558.149658  -36619.27734    301.494812
    3892           0      3088.683105   -186.959625  -36619.27734    341.777069
    3893           0      2954.035645   -921.190186  -36243.37500    267.639679
    3894           0      3043.581055   -558.149658  -36243.37500    313.220490
    3895           0      3088.683105   -186.959625  -36243.37500    359.310730
    3896           0      2954.035645   -921.190186  -35867.46875    268.599426
    3897           0      3043.581055   -558.149658  -35867.46484    325.921173
    3898           0      3088.683105   -186.959625  -35867.46875    376.732422
    3899           0      2954.035645   -921.190186  -35491.56250    269.995575
    3900           0      3043.581055   -558.149658  -35491.55859    341.389771
    3901           0      3088.683105   -186.959625  -35491.56250    396.272491
    3902           0      2954.035645   -921.190186  -35115.65625    271.426117
    3903           0      3043.581055   -558.149658  -35115.64843    354.640594
    3904           0      3088.683105   -186.959656  -35115.65625    411.816162
    3905           0      2954.035645   -921.190186  -34739.75781    273.912476
    3906           0      3043.581055   -558.149719  -34739.75390    373.926178
    3907           0      3088.683105   -186.959671  -34739.75781    435.538025
    3908           0      2954.035645   -921.190186  -34363.85937    275.601929
    3909           0      3043.581055   -558.149719  -34363.86328    384.391144
    3910           0      3088.683105   -186.959671  -34363.85937    447.528564
    3911           0      2954.035645   -921.190186  -33987.95312    262.577820
    3912           0      3043.581055   -558.149719  -33987.95312    384.977600
    3913           0      3088.683105   -186.959671  -33987.95312    453.942780
    3914           0     -3088.683105   -186.960587  -64812.04687    186.194214
    3915           0     -3043.581055   -558.151123  -64812.04687    158.664886
    3916           0     -2954.035645   -921.190552  -64812.04687     74.361526
    3917           0     -3088.683105   -186.960693  -64436.14062    172.769470
    3918           0     -3043.581055   -558.151428  -64436.14062    146.578156
    3919           0     -2954.035645   -921.190796  -64436.14062     72.223770
    3920           0     -3088.683105   -186.960693  -64060.24218    159.464600
    3921           0     -3043.581055   -558.151428  -64060.24218    132.947067
    3922           0     -2954.035645   -921.190735  -64060.24218     68.215729
    3923           0     -3088.683105   -186.960693  -63684.33984    138.965454
    3924           0     -3043.581055   -558.151367  -63684.33984    115.142059
    3925           0     -2954.035645   -921.190674  -63684.33984     67.090408
    3926           0     -3088.683105   -186.960693  -63308.43359    123.931679
    3927           0     -3043.581055   -558.151367  -63308.43359    104.806831
    3928           0     -2954.035645   -921.190674  -63308.43359     71.075592
    3929           0     -3088.683105   -186.960693  -62932.53125    107.443207
    3930           0     -3043.581055   -558.151367  -62932.53125     96.652138
    3931           0     -2954.035645   -921.190674  -62932.53125     76.750557
    3932           0     -3088.683105   -186.960693  -62556.62500     93.780090
    3933           0     -3043.581055   -558.151367  -62556.62500     94.340424
    3934           0     -2954.035645   -921.190674  -62556.62500     83.296577
    3935           0     -3088.683105   -186.960693  -62180.72656     82.362610
    3936           0     -3043.581055   -558.151367  -62180.72656     96.123802
    3937           0     -2954.035645   -921.190674  -62180.72656     89.142494
    3938           0     -3088.683105   -186.960678  -61804.82421     74.813805
    3939           0     -3043.581055   -558.151367  -61804.82421    101.448097
    3940           0     -2954.035645   -921.190674  -61804.82421     93.881660
    3941           0     -3088.683105   -186.960663  -61428.91796     71.719589
    3942           0     -3043.581055   -558.151367  -61428.91796    108.864098
    3943           0     -2954.035645   -921.190674  -61428.91796     97.164627
    3944           0     -3088.683105   -186.960663  -61053.01171     73.256363
    3945           0     -3043.581055   -558.151367  -61053.01171    117.374290
    3946           0     -2954.035645   -921.190674  -61053.01171     99.024246
    3947           0     -3088.683105   -186.960663  -60677.10937     78.636002
    3948           0     -3043.581055   -558.151367  -60677.10937    126.224892
    3949           0     -2954.035645   -921.190674  -60677.10937     99.522346
    3950           0     -3088.683105   -186.960663  -60301.20312     86.685020
    3951           0     -3043.581055   -558.151367  -60301.20312    134.942993
    3952           0     -2954.035645   -921.190674  -60301.20312     98.854439
    3953           0     -3088.683105   -186.960663  -59925.29687     96.315231
    3954           0     -3043.581055   -558.151367  -59925.29687    143.257965
    3955           0     -2954.035645   -921.190674  -59925.29687     97.206253
    3956           0     -3088.683105   -186.960663  -59549.39843    106.733543
    3957           0     -3043.581055   -558.151367  -59549.39453    151.015335
    3958           0     -2954.035645   -921.190674  -59549.39843     94.813675
    3959           0     -3088.683105   -186.960663  -59173.49609    117.418304
    3960           0     -3043.581055   -558.151306  -59173.49609    158.154190
    3961           0     -2954.035645   -921.190674  -59173.49609     91.888985
    3962           0     -3088.683105   -186.960663  -58797.59375    128.039780
    3963           0     -3043.581055   -558.151306  -58797.58984    164.655243
    3964           0     -2954.035645   -921.190674  -58797.58984     88.662735
    3965           0     -3088.683105   -186.960663  -58421.68750    138.394226
    3966           0     -3043.581055   -558.151306  -58421.68750    170.538422
    3967           0     -2954.035645   -921.190674  -58421.68750     85.339310
    3968           0     -3088.683105   -186.960663  -58045.78125    148.357147
    3969           0     -3043.581055   -558.151306  -58045.78125    175.835846
    3970           0     -2954.035645   -921.190674  -58045.78125     82.125534
    3971           0     -3088.683105   -186.960663  -57669.87890    157.855209
    3972           0     -3043.581055   -558.151306  -57669.87890    180.594650
    3973           0     -2954.035645   -921.190674  -57669.87890     79.199371
    3974           0     -3088.683105   -186.960648  -57293.97656    166.847885
    3975           0     -3043.581055   -558.151245  -57293.97656    184.862610
    3976           0     -2954.035645   -921.190674  -57293.97656     76.726021
    3977           0     -3088.683105   -186.960632  -56918.07421    175.316330
    3978           0     -3043.581055   -558.151245  -56918.07421    188.691589
    3979           0     -2954.035645   -921.190552  -56918.07421     74.832184
    3980           0     -3088.683105   -186.960632  -56542.17187    183.255875
    3981           0     -3043.581055   -558.151245  -56542.17187    192.129837
    3982           0     -2954.035645   -921.190552  -56542.16796     73.613121
    3983           0     -3088.683105   -186.960632  -56166.26562    190.671082
    3984           0     -3043.581055   -558.151245  -56166.26562    195.224869
    3985           0     -2954.035645   -921.190552  -56166.26562     73.114731
    3986           0     -3088.683105   -186.960632  -55790.35937    197.572723
    3987           0     -3043.581055   -558.151245  -55790.35937    198.019379
    3988           0     -2954.035645   -921.190552  -55790.35937     73.341240
    3989           0     -3088.683105   -186.960632  -55414.45312    203.975159
    3990           0     -3043.581055   -558.151245  -55414.45312    200.553406
    3991           0     -2954.035645   -921.190552  -55414.45312     74.252609
    3992           0     -3088.683105   -186.960632  -55038.55468    209.894974
    3993           0     -3043.581055   -558.151184  -55038.55468    202.862259
    3994           0     -2954.035645   -921.190552  -55038.55468     75.778435
    3995           0     -3088.683105   -186.960632  -54662.65234    215.350098
    3996           0     -3043.581055   -558.151184  -54662.64843    204.977753
    3997           0     -2954.035645   -921.190552  -54662.65234     77.828125
    3998           0     -3088.683105   -186.960632  -54286.74609    220.358429
    3999           0     -3043.581055   -558.151184  -54286.74609    206.928162
    4000           0     -2954.035645   -921.190552  -54286.74609     80.301353
    4001           0     -3088.683105   -186.960632  -53910.84375    224.937561
    4002           0     -3043.581055   -558.151184  -53910.84375    208.738876
    4003           0     -2954.035645   -921.190552  -53910.84375     83.101868
    4004           0     -3088.683105   -186.960632  -53534.93750    229.105286
    4005           0     -3043.581055   -558.151184  -53534.93750    210.430237
    4006           0     -2954.035645   -921.190552  -53534.93750     86.141151
    4007           0     -3088.683105   -186.960632  -53159.03906    232.876129
    4008           0     -3043.581055   -558.151184  -53159.03906    212.020035
    4009           0     -2954.035645   -921.190552  -53159.03906     89.337021
    4010           0     -3088.683105   -186.960602  -52783.13281    236.267212
    4011           0     -3043.581055   -558.151184  -52783.13281    213.525894
    4012           0     -2954.035645   -921.190552  -52783.13281     92.626228
    4013           0     -3088.683105   -186.960602  -52407.22656    239.292419
    4014           0     -3043.581055   -558.151123  -52407.22656    214.959656
    4015           0     -2954.035645   -921.190552  -52407.23046     95.953072
    4016           0     -3088.683105   -186.960602  -52031.32421    241.962646
    4017           0     -3043.581055   -558.151123  -52031.32421    216.332626
    4018           0     -2954.035645   -921.190552  -52031.32812     99.275902
    4019           0     -3088.683105   -186.960602  -51655.42187    244.291504
    4020           0     -3043.581055   -558.151123  -51655.42187    217.654938
    4021           0     -2954.035645   -921.190552  -51655.42187    102.561874
    4022           0     -3088.683105   -186.960602  -51279.51562    246.288483
    4023           0     -3043.581055   -558.151123  -51279.51562    218.933304
    4024           0     -2954.035645   -921.190552  -51279.51562    105.787437
    4025           0     -3088.683105   -186.960602  -50903.60937    247.962997
    4026           0     -3043.581055   -558.151123  -50903.60937    220.174133
    4027           0     -2954.035645   -921.190552  -50903.61718    108.936371
    4028           0     -3088.683105   -186.960587  -50527.71093    249.323090
    4029           0     -3043.581055   -558.151123  -50527.71093    221.381607
    4030           0     -2954.035645   -921.190552  -50527.71093    111.999634
    4031           0     -3088.683105   -186.960571  -50151.80859    250.375809
    4032           0     -3043.581055   -558.151123  -50151.80468    222.559143
    4033           0     -2954.035645   -921.190552  -50151.80468    114.973335
    4034           0     -3088.683105   -186.960571  -49775.90234    251.126602
    4035           0     -3043.581055   -558.151123  -49775.90234    223.708740
    4036           0     -2954.035645   -921.190552  -49775.90234    117.859222
    4037           0     -3088.683105   -186.960571  -49400.00000    251.580765
    4038           0     -3043.581055   -558.151123  -49400.00000    224.831223
    4039           0     -2954.035645   -921.190552  -49400.00000    120.663002
    4040           0     -3088.683105   -186.960571  -49024.09375    251.741989
    4041           0     -3043.581055   -558.151123  -49024.09375    225.926514
    4042           0     -2954.035645   -921.190552  -49024.09765    123.394684
    4043           0     -3088.683105   -186.960571  -48648.18750    251.613403
    4044           0     -3043.581055   -558.151123  -48648.18750    226.993454
    4045           0     -2954.035645   -921.190552  -48648.18750    126.067726
    4046           0     -3088.683105   -186.960571  -48272.28906    251.197632
    4047           0     -3043.581055   -558.151062  -48272.28906    228.029755
    4048           0     -2954.035645   -921.190552  -48272.28906    128.698593
    4049           0     -3088.683105   -186.960571  -47896.38671    250.496109
    4050           0     -3043.581055   -558.151062  -47896.38671    229.032471
    4051           0     -2954.035645   -921.190552  -47896.38671    131.306931
    4052           0     -3088.683105   -186.960571  -47520.48046    249.510208
    4053           0     -3043.581055   -558.151062  -47520.48046    229.997269
    4054           0     -2954.035645   -921.190552  -47520.48437    133.914642
    4055           0     -3088.683105   -186.960571  -47144.57812    248.240784
    4056           0     -3043.581055   -558.151062  -47144.57812    230.918976
    4057           0     -2954.035645   -921.190552  -47144.57812    136.545593
    4058           0     -3088.683105   -186.960571  -46768.67968    246.688492
    4059           0     -3043.581055   -558.151062  -46768.67968    231.791290
    4060           0     -2954.035645   -921.190552  -46768.67187    139.225708
    4061           0     -3088.683105   -186.960571  -46392.77343    244.854065
    4062           0     -3043.581055   -558.151062  -46392.77343    232.606842
    4063           0     -2954.035645   -921.190552  -46392.76953    141.981720
    4064           0     -3088.683105   -186.960556  -46016.87109    242.738602
    4065           0     -3043.581055   -558.151062  -46016.86718    233.356827
    4066           0     -2954.035645   -921.190491  -46016.86718    144.840973
    4067           0     -3088.683105   -186.960541  -45640.96484    240.343964
    4068           0     -3043.581055   -558.151001  -45640.96484    234.031174
    4069           0     -2954.035645   -921.190430  -45640.96484    147.831284
    4070           0     -3088.683105   -186.960541  -45265.06250    237.673248
    4071           0     -3043.581055   -558.151001  -45265.06250    234.618759
    4072           0     -2954.035645   -921.190430  -45265.06250    150.977982
    4073           0     -3088.683105   -186.960541  -44889.15625    234.729828
    4074           0     -3043.581055   -558.151001  -44889.15625    235.107086
    4075           0     -2954.035645   -921.190430  -44889.15625    154.305618
    4076           0     -3088.683105   -186.960541  -44513.25000    231.523682
    4077           0     -3043.581055   -558.151001  -44513.25390    235.481613
    4078           0     -2954.035645   -921.190430  -44513.25000    157.840225
    4079           0     -3088.683105   -186.960541  -44137.35156    228.060379
    4080           0     -3043.581055   -558.151001  -44137.34765    235.724655
    4081           0     -2954.035645   -921.190430  -44137.35156    161.590530
    4082           0     -3088.683105   -186.960541  -43761.44531    224.359711
    4083           0     -3043.581055   -558.151001  -43761.44140    235.824646
    4084           0     -2954.035645   -921.190430  -43761.44140    165.578415
    4085           0     -3088.683105   -186.960541  -43385.53906    220.437347
    4086           0     -3043.581055   -558.150940  -43385.53515    235.756378
    4087           0     -2954.035645   -921.190430  -43385.53906    169.807098
    4088           0     -3088.683105   -186.960541  -43009.63281    216.326904
    4089           0     -3043.581055   -558.150940  -43009.63281    235.504135
    4090           0     -2954.035645   -921.190430  -43009.63671    174.273773
    4091           0     -3088.683105   -186.960541  -42633.73437    212.060455
    4092           0     -3043.581055   -558.150940  -42633.73046    235.047379
    4093           0     -2954.035645   -921.190430  -42633.73437    178.967758
    4094           0     -3088.683105   -186.960541  -42257.83203    207.689819
    4095           0     -3043.581055   -558.150940  -42257.83593    234.364716
    4096           0     -2954.035645   -921.190430  -42257.82812    183.873016
    4097           0     -3088.683105   -186.960541  -41881.92968    203.276825
    4098           0     -3043.581055   -558.150940  -41881.92578    233.439102
    4099           0     -2954.035645   -921.190430  -41881.92968    188.952179
    4100           0     -3088.683105   -186.960526  -41506.02343    198.904144
    4101           0     -3043.581055   -558.150879  -41506.01953    232.249161
    4102           0     -2954.035645   -921.190430  -41506.02343    194.169006
    4103           0     -3088.683105   -186.960510  -41130.12109    194.670715
    4104           0     -3043.581055   -558.150879  -41130.12109    230.787338
    4105           0     -2954.035645   -921.190430  -41130.12109    199.454056
    4106           0     -3088.683105   -186.960510  -40754.21875    190.703522
    4107           0     -3043.581055   -558.150879  -40754.21875    229.039932
    4108           0     -2954.035645   -921.190430  -40754.21875    204.750916
    4109           0     -3088.683105   -186.960510  -40378.31250    187.147095
    4110           0     -3043.581055   -558.150879  -40378.31640    227.020355
    4111           0     -2954.035645   -921.190430  -40378.31250    209.951172
    4112           0     -3088.683105   -186.960510  -40002.40625    184.180206
    4113           0     -3043.581055   -558.150879  -40002.40625    224.734238
    4114           0     -2954.035645   -921.190430  -40002.40625    214.982834
    4115           0     -3088.683105   -186.960510  -39626.50781    181.987854
    4116           0     -3043.581055   -558.150879  -39626.50390    222.235718
    4117           0     -2954.035645   -921.190430  -39626.50390    219.692078
    4118           0     -3088.683105   -186.960510  -39250.60156    180.789932
    4119           0     -3043.581055   -558.150879  -39250.59765    219.568176
    4120           0     -2954.035645   -921.190430  -39250.60156    224.004700
    4121           0     -3088.683105   -186.960510  -38874.69921    180.771088
    4122           0     -3043.581055   -558.150879  -38874.69921    216.857803
    4123           0     -2954.035645   -921.190308  -38874.69921    227.717133
    4124           0     -3088.683105   -186.960510  -38498.79687    182.156097
    4125           0     -3043.581055   -558.150879  -38498.79687    214.206772
    4126           0     -2954.035645   -921.190308  -38498.79687    230.787872
    4127           0     -3088.683105   -186.960510  -38122.89062    185.038666
    4128           0     -3043.581055   -558.150879  -38122.89453    211.851776
    4129           0     -2954.035645   -921.190308  -38122.89062    232.963120
    4130           0     -3088.683105   -186.960510  -37746.98828    189.606110
    4131           0     -3043.581055   -558.150879  -37746.98828    209.960495
    4132           0     -2954.035645   -921.190308  -37746.98828    234.306564
    4133           0     -3088.683105   -186.960510  -37371.08593    195.732544
    4134           0     -3043.581055   -558.150879  -37371.08203    208.904739
    4135           0     -2954.035645   -921.190308  -37371.08203    234.519333
    4136           0     -3088.683105   -186.960495  -36995.17968    203.609879
    4137           0     -3043.581055   -558.150818  -36995.17578    208.845932
    4138           0     -2954.035645   -921.190308  -36995.17968    233.900864
    4139           0     -3088.683105   -186.960480  -36619.27734    212.707718
    4140           0     -3043.581055   -558.150818  -36619.27734    210.270554
    4141           0     -2954.035645   -921.190308  -36619.27734    232.107285
    4142           0     -3088.683105   -186.960480  -36243.37500    223.512177
    4143           0     -3043.581055   -558.150818  -36243.37500    213.071838
    4144           0     -2954.035645   -921.190308  -36243.37500    229.848892
    4145           0     -3088.683105   -186.960480  -35867.46875    234.601669
    4146           0     -3043.581055   -558.150818  -35867.46875    217.759460
    4147           0     -2954.035645   -921.190308  -35867.46875    226.674362
    4148           0     -3088.683105   -186.960480  -35491.56250    247.897476
    4149           0     -3043.581055   -558.150818  -35491.56250    223.524612
    4150           0     -2954.035645   -921.190308  -35491.56640    223.686813
    4151           0     -3088.683105   -186.960480  -35115.65625    259.002411
    4152           0     -3043.581055   -558.150818  -35115.65625    230.648300
    4153           0     -2954.035645   -921.190308  -35115.66406    220.068512
    4154           0     -3088.683105   -186.960480  -34739.75781    275.573273
    4155           0     -3043.581055   -558.150818  -34739.75781    237.797150
    4156           0     -2954.035645   -921.190308  -34739.75781    215.767258
    4157           0     -3088.683105   -186.960480  -34363.85937    285.578308
    4158           0     -3043.581055   -558.150757  -34363.85937    245.794724
    4159           0     -2954.035645   -921.190308  -34363.85546    213.499619
    4160           0     -3088.683105   -186.960480  -33987.95312    293.673676
    4161           0     -3043.581055   -558.150757  -33987.95312    242.048187
    4162           0     -2954.035645   -921.190308  -33987.95312    190.559891
    4163           0     -2821.431641  -1270.631104  -64812.04687     79.156998
    4164           0     -2647.742676  -1601.387085  -64812.04687    151.488983
    4165           0     -2435.458008  -1908.801636  -64812.04687    166.704910
    4166           0     -2187.674316  -2188.392578  -64812.04687    145.014236
    4167           0     -1908.001831  -2436.084717  -64812.04687    104.893044
    4168           0     -1600.518066  -2648.268066  -64812.04687     57.666878
    4169           0     -1269.705933  -2821.848145  -64812.04687     16.284557
    4170           0      -920.385498  -2954.297119  -64812.04687     33.312790
    4171           0      -557.650330  -3043.683105  -64812.04687     59.465961
    4172           0      -186.789215  -3088.704102  -64812.04687     73.493980
    4173           0     -2821.431641  -1270.631348  -64436.14062     81.796265
    4174           0     -2647.741943  -1601.388184  -64436.14062    144.164322
    4175           0     -2435.456787  -1908.803223  -64436.14062    158.011490
    4176           0     -2187.672363  -2188.394531  -64436.14062    139.573929
    4177           0     -1907.999390  -2436.086426  -64436.14062    102.465805
    4178           0     -1600.515381  -2648.269775  -64436.14062     57.903931
    4179           0     -1269.703369  -2821.849365  -64436.14062     18.240473
    4180           0      -920.383179  -2954.297852  -64436.14062     30.588259
    4181           0      -557.648499  -3043.683594  -64436.14062     55.572353
    4182           0      -186.788834  -3088.704102  -64436.14062     69.326027
    4183           0     -2821.431641  -1270.631348  -64060.24218     82.427002
    4184           0     -2647.741943  -1601.388184  -64060.24218    134.458054
    4185           0     -2435.456787  -1908.803223  -64060.24218    148.934784
    4186           0     -2187.672607  -2188.394531  -64060.24218    132.336716
    4187           0     -1907.999512  -2436.086426  -64060.24218     98.293327
    4188           0     -1600.515503  -2648.269531  -64060.24218     56.229843
    4189           0     -1269.703613  -2821.849121  -64060.24218     18.494862
    4190           0      -920.383301  -2954.297852  -64060.24218     28.257126
    4191           0      -557.648560  -3043.683594  -64060.24218     51.938381
    4192           0      -186.788834  -3088.704102  -64060.24218     65.181427
    4193           0     -2821.431641  -1270.631348  -63684.33984     86.637863
    4194           0     -2647.741943  -1601.388184  -63684.33984    120.869713
    4195           0     -2435.456787  -1908.803223  -63684.33984    133.300201
    4196           0     -2187.672607  -2188.394531  -63684.33984    120.674225
    4197           0     -1907.999512  -2436.086426  -63684.33984     91.152435
    4198           0     -1600.515503  -2648.269531  -63684.33984     53.708782
    4199           0     -1269.703613  -2821.849121  -63684.33984     19.260853
    4200           0      -920.383301  -2954.297852  -63684.33984     24.537399
    4201           0      -557.648560  -3043.683594  -63684.33984     45.914848
    4202           0      -186.788834  -3088.704102  -63684.33984     58.282280
    4203           0     -2821.431641  -1270.631348  -63308.43359     95.242592
    4204           0     -2647.741943  -1601.387939  -63308.43359    113.367485
    4205           0     -2435.456787  -1908.803223  -63308.43359    122.317177
    4206           0     -2187.672607  -2188.394287  -63308.43359    112.124344
    4207           0     -1907.999512  -2436.086426  -63308.43359     85.982605
    4208           0     -1600.515503  -2648.269531  -63308.43359     51.861290
    4209           0     -1269.703613  -2821.849121  -63308.43359     19.966650
    4210           0      -920.383362  -2954.297852  -63308.43359     21.954525
    4211           0      -557.648621  -3043.683594  -63308.43359     41.392738
    4212           0      -186.788834  -3088.704102  -63308.43359     53.069393
    4213           0     -2821.431641  -1270.631348  -62932.53125    105.032959
    4214           0     -2647.741943  -1601.387939  -62932.53125    106.840576
    4215           0     -2435.456787  -1908.803223  -62932.53125    109.568863
    4216           0     -2187.672607  -2188.394287  -62932.53125    102.250359
    4217           0     -1907.999756  -2436.086426  -62932.53125     80.130829
    4218           0     -1600.515625  -2648.269531  -62932.53125     49.864811
    4219           0     -1269.703613  -2821.849121  -62932.53125     20.913925
    4220           0      -920.383423  -2954.297852  -62932.53125     19.143362
    4221           0      -557.648682  -3043.683594  -62932.53125     36.168789
    4222           0      -186.788879  -3088.704102  -62932.53125     47.039715
    4223           0     -2821.431641  -1270.631348  -62556.62500    115.330490
    4224           0     -2647.741943  -1601.387939  -62556.62500    104.560532
    4225           0     -2435.456787  -1908.803101  -62556.62500     98.688087
    4226           0     -2187.672852  -2188.394287  -62556.62500     92.787788
    4227           0     -1907.999756  -2436.086426  -62556.62500     74.584877
    4228           0     -1600.515625  -2648.269531  -62556.62500     48.003342
    4229           0     -1269.703735  -2821.849121  -62556.62500     21.916447
    4230           0      -920.383423  -2954.297852  -62556.62500     16.888502
    4231           0      -557.648743  -3043.683594  -62556.62500     31.229933
    4232           0      -186.788940  -3088.704102  -62556.62500     41.262394
    4233           0     -2821.431641  -1270.631348  -62180.72656    124.698387
    4234           0     -2647.741943  -1601.387939  -62180.72656    104.953522
    4235           0     -2435.457031  -1908.802979  -62180.72656     88.729088
    4236           0     -2187.672852  -2188.394043  -62180.72656     83.271561
    4237           0     -1907.999756  -2436.086426  -62180.72656     69.003258
    4238           0     -1600.515869  -2648.269531  -62180.72656     46.272053
    4239           0     -1269.703857  -2821.849121  -62180.72656     23.080114
    4240           0      -920.383545  -2954.297852  -62180.72656     15.121180
    4241           0      -557.648804  -3043.683594  -62180.72656     26.234274
    4242           0      -186.788940  -3088.704102  -62180.72656     35.353905
    4243           0     -2821.431641  -1270.631348  -61804.82421    132.821594
    4244           0     -2647.741943  -1601.387939  -61804.82421    108.015312
    4245           0     -2435.457031  -1908.802979  -61804.82421     80.724693
    4246           0     -2187.672852  -2188.394043  -61804.82421     73.860191
    4247           0     -1907.999878  -2436.086182  -61804.82421     63.453266
    4248           0     -1600.515869  -2648.269287  -61804.82421     44.661179
    4249           0     -1269.703857  -2821.849121  -61804.82421     24.367661
    4250           0      -920.383667  -2954.297607  -61804.82421     14.168707
    4251           0      -557.648865  -3043.683350  -61804.82421     21.355612
    4252           0      -186.788940  -3088.704102  -61804.82421     29.453556
    4253           0     -2821.431641  -1270.631348  -61428.91796    139.350250
    4254           0     -2647.741943  -1601.387939  -61428.91796    112.753418
    4255           0     -2435.457031  -1908.802979  -61428.91796     74.883942
    4256           0     -2187.672852  -2188.394043  -61428.91796     64.729851
    4257           0     -1907.999878  -2436.086182  -61428.91796     57.927769
    4258           0     -1600.515869  -2648.269287  -61428.91796     43.208481
    4259           0     -1269.703979  -2821.849121  -61428.91796     25.797577
    4260           0      -920.383667  -2954.297607  -61428.91796     14.182574
    4261           0      -557.648865  -3043.683350  -61428.91796     16.667988
    4262           0      -186.788940  -3088.704102  -61428.91796     23.547504
    4263           0     -2821.431641  -1270.631348  -61053.01171    144.303680
    4264           0     -2647.741943  -1601.387817  -61053.01171    118.566261
    4265           0     -2435.457031  -1908.802979  -61053.01171     71.602318
    4266           0     -2187.672852  -2188.394043  -61053.01171     55.946102
    4267           0     -1908.000000  -2436.085938  -61053.01171     52.459656
    4268           0     -1600.515991  -2648.269287  -61053.01171     41.917557
    4269           0     -1269.704102  -2821.849121  -61053.01171     27.365929
    4270           0      -920.383728  -2954.297607  -61053.01171     15.192597
    4271           0      -557.648926  -3043.683350  -61053.01171     12.445697
    4272           0      -186.788940  -3088.704102  -61053.01171     17.694384
    4273           0     -2821.431641  -1270.631348  -60677.10937    147.716553
    4274           0     -2647.742188  -1601.387817  -60677.10937    124.855949
    4275           0     -2435.457031  -1908.802979  -60677.10937     70.900543
    4276           0     -2187.672852  -2188.394043  -60677.10937     47.763214
    4277           0     -1908.000000  -2436.085938  -60677.10937     47.071251
    4278           0     -1600.516113  -2648.269043  -60677.10937     40.817505
    4279           0     -1269.704102  -2821.849121  -60677.10937     29.067799
    4280           0      -920.383789  -2954.297607  -60677.10937     17.041866
    4281           0      -557.648987  -3043.683350  -60677.10937      9.391167
    4282           0      -186.788940  -3088.704102  -60677.10937     12.036199
    4283           0     -2821.431641  -1270.631348  -60301.20312    149.741089
    4284           0     -2647.742188  -1601.387817  -60301.20312    131.236420
    4285           0     -2435.457031  -1908.802856  -60301.20312     72.549873
    4286           0     -2187.672852  -2188.394043  -60301.20312     40.406578
    4287           0     -1908.000244  -2436.085938  -60301.20312     41.811951
    4288           0     -1600.516113  -2648.269043  -60301.20312     39.923561
    4289           0     -1269.704102  -2821.848877  -60301.20312     30.897684
    4290           0      -920.383850  -2954.297607  -60301.20312     19.515047
    4291           0      -557.648987  -3043.683350  -60301.20312      8.862997
    4292           0      -186.788940  -3088.704102  -60301.20312      7.160674
    4293           0     -2821.431641  -1270.631348  -59925.29687    150.529037
    4294           0     -2647.742188  -1601.387817  -59925.29687    137.437668
    4295           0     -2435.457031  -1908.802734  -59925.29687     76.077438
    4296           0     -2187.673096  -2188.394043  -59925.29687     34.309669
    4297           0     -1908.000244  -2436.085938  -59925.29687     36.709080
    4298           0     -1600.516113  -2648.269043  -59925.29687     39.253551
    4299           0     -1269.704224  -2821.848877  -59925.29687     32.842777
    4300           0      -920.383972  -2954.297607  -59925.29687     22.423965
    4301           0      -557.649048  -3043.683350  -59925.29687     11.263489
    4302           0      -186.788940  -3088.704102  -59925.29687      5.797753
    4303           0     -2821.431641  -1270.631348  -59549.39843    150.262741
    4304           0     -2647.742188  -1601.387695  -59549.39453    143.296646
    4305           0     -2435.457031  -1908.802734  -59549.39453     80.950676
    4306           0     -2187.673096  -2188.394043  -59549.39453     30.009352
    4307           0     -1908.000244  -2436.085938  -59549.39453     31.814295
    4308           0     -1600.516113  -2648.269043  -59549.39453     38.809399
    4309           0     -1269.704346  -2821.848877  -59549.39453     34.890190
    4310           0      -920.384033  -2954.297607  -59549.39453     25.632746
    4311           0      -557.649109  -3043.683350  -59549.39453     15.295066
    4312           0      -186.788940  -3088.704102  -59549.39453      9.644002
    4313           0     -2821.431641  -1270.631348  -59173.49609    149.112213
    4314           0     -2647.742188  -1601.387695  -59173.49218    148.723083
    4315           0     -2435.457031  -1908.802734  -59173.49218     86.680717
    4316           0     -2187.673096  -2188.393799  -59173.49218     28.093632
    4317           0     -1908.000366  -2436.085938  -59173.49609     27.166248
    4318           0     -1600.516479  -2648.269043  -59173.49609     38.585606
    4319           0     -1269.704346  -2821.848877  -59173.49609     37.021336
    4320           0      -920.384033  -2954.297607  -59173.49609     29.049448
    4321           0      -557.649109  -3043.683350  -59173.49609     20.012110
    4322           0      -186.788940  -3088.704102  -59173.49609     15.180072
    4323           0     -2821.431641  -1270.631226  -58797.59375    147.246674
    4324           0     -2647.742188  -1601.387695  -58797.59375    153.674454
    4325           0     -2435.457031  -1908.802734  -58797.59375     92.884247
    4326           0     -2187.673340  -2188.393799  -58797.59375     28.754671
    4327           0     -1908.000488  -2436.085938  -58797.59375     22.830288
    4328           0     -1600.516479  -2648.269043  -58797.59375     38.560699
    4329           0     -1269.704346  -2821.848877  -58797.59375     39.217628
    4330           0      -920.384094  -2954.297607  -58797.59375     32.609074
    4331           0      -557.649170  -3043.683350  -58797.59375     25.039816
    4332           0      -186.788940  -3088.704102  -58797.59375     21.135363
    4333           0     -2821.431641  -1270.631226  -58421.68750    144.818756
    4334           0     -2647.742188  -1601.387695  -58421.69140    158.143677
    4335           0     -2435.457031  -1908.802734  -58421.69140     99.278481
    4336           0     -2187.673340  -2188.393799  -58421.69140     31.570179
    4337           0     -1908.000488  -2436.085938  -58421.69140     18.886339
    4338           0     -1600.516479  -2648.269043  -58421.69140     38.706604
    4339           0     -1269.704468  -2821.848877  -58421.69140     41.457371
    4340           0      -920.384155  -2954.297607  -58421.69140     36.266045
    4341           0      -557.649292  -3043.683350  -58421.69140     30.226662
    4342           0      -186.789001  -3088.704102  -58421.68750     27.247868
    4343           0     -2821.431641  -1270.631226  -58045.78125    141.969788
    4344           0     -2647.742188  -1601.387695  -58045.78125    162.142990
    4345           0     -2435.457031  -1908.802734  -58045.78125    105.667473
    4346           0     -2187.673340  -2188.393799  -58045.78125     35.796886
    4347           0     -1908.000488  -2436.085693  -58045.78125     15.469841
    4348           0     -1600.516479  -2648.269043  -58045.78125     38.986488
    4349           0     -1269.704468  -2821.848877  -58045.78125     43.720032
    4350           0      -920.384155  -2954.297607  -58045.78125     39.985367
    4351           0      -557.649353  -3043.683350  -58045.78125     35.500870
    4352           0      -186.789063  -3088.704102  -58045.78125     33.436852
    4353           0     -2821.431641  -1270.631226  -57669.87890    138.824707
    4354           0     -2647.742188  -1601.387695  -57669.87890    165.699783
    4355           0     -2435.457275  -1908.802490  -57669.87890    111.917297
    4356           0     -2187.673340  -2188.393555  -57669.87890     40.789230
    4357           0     -1908.000732  -2436.085449  -57669.87890     12.790273
    4358           0     -1600.516602  -2648.269043  -57669.87890     39.362984
    4359           0     -1269.704468  -2821.848633  -57669.87890     45.985283
    4360           0      -920.384277  -2954.297607  -57669.87890     43.739830
    4361           0      -557.649414  -3043.683350  -57669.87890     40.820869
    4362           0      -186.789063  -3088.704102  -57669.87890     39.667389
    4363           0     -2821.431641  -1270.631226  -57293.97656    135.495056
    4364           0     -2647.742188  -1601.387695  -57293.97656    168.847656
    4365           0     -2435.457275  -1908.802490  -57293.97656    117.940773
    4366           0     -2187.673340  -2188.393555  -57293.97656     46.115902
    4367           0     -1908.000732  -2436.085449  -57293.97656     11.138310
    4368           0     -1600.516602  -2648.268799  -57293.97656     39.798454
    4369           0     -1269.704590  -2821.848633  -57293.97656     48.235287
    4370           0      -920.384277  -2954.297607  -57293.97656     47.507652
    4371           0      -557.649414  -3043.683350  -57293.97656     46.160355
    4372           0      -186.789063  -3088.704102  -57293.97656     45.918404
    4373           0     -2821.431641  -1270.631104  -56918.07421    132.078079
    4374           0     -2647.742188  -1601.387695  -56918.07421    171.625397
    4375           0     -2435.457520  -1908.802490  -56918.07421    123.681877
    4376           0     -2187.673340  -2188.393555  -56918.07421     51.514072
    4377           0     -1908.000732  -2436.085449  -56918.07421     10.737391
    4378           0     -1600.516602  -2648.268799  -56918.07421     40.260124
    4379           0     -1269.704590  -2821.848633  -56918.07421     50.454285
    4380           0      -920.384277  -2954.297363  -56918.07421     51.271587
    4381           0      -557.649414  -3043.683350  -56918.07421     51.499336
    4382           0      -186.789063  -3088.704102  -56918.07421     52.174263
    4383           0     -2821.431641  -1270.631104  -56542.17187    128.658676
    4384           0     -2647.742188  -1601.387451  -56542.17187    174.072189
    4385           0     -2435.457520  -1908.802490  -56542.17187    129.107880
    4386           0     -2187.673340  -2188.393555  -56542.17187     56.826096
    4387           0     -1908.000732  -2436.085449  -56542.17187     11.487891
    4388           0     -1600.516846  -2648.268799  -56542.17187     40.719666
    4389           0     -1269.704834  -2821.848633  -56542.17187     52.630386
    4390           0      -920.384399  -2954.297363  -56542.17187     55.017765
    4391           0      -557.649475  -3043.683105  -56542.17187     56.822567
    4392           0      -186.789063  -3088.704102  -56542.17187     58.420803
    4393           0     -2821.431641  -1270.631104  -56166.26171    125.310112
    4394           0     -2647.742188  -1601.387451  -56166.26171    176.227615
    4395           0     -2435.457520  -1908.802490  -56166.26171    134.201035
    4396           0     -2187.673340  -2188.393555  -56166.26562     61.956047
    4397           0     -1908.000732  -2436.085449  -56166.26562     13.001397
    4398           0     -1600.516846  -2648.268799  -56166.26562     41.155926
    4399           0     -1269.704834  -2821.848633  -56166.26562     54.754745
    4400           0      -920.384521  -2954.297363  -56166.26562     58.735992
    4401           0      -557.649536  -3043.683105  -56166.26562     62.117214
    4402           0      -186.789063  -3088.704102  -56166.26562     64.644402
    4403           0     -2821.431641  -1270.631104  -55790.35937    122.095100
    4404           0     -2647.742188  -1601.387451  -55790.35937    178.129379
    4405           0     -2435.457520  -1908.802490  -55790.35937    138.955444
    4406           0     -2187.673584  -2188.393555  -55790.35937     66.844833
    4407           0     -1908.000854  -2436.085449  -55790.35937     14.887646
    4408           0     -1600.516968  -2648.268799  -55790.35937     41.553429
    4409           0     -1269.704834  -2821.848633  -55790.35937     56.823029
    4410           0      -920.384521  -2954.297363  -55790.35937     62.418648
    4411           0      -557.649536  -3043.683105  -55790.36328     67.372505
    4412           0      -186.789063  -3088.704102  -55790.35937     70.831482
    4413           0     -2821.431641  -1270.631104  -55414.46093    119.067291
    4414           0     -2647.742188  -1601.387451  -55414.46093    179.813477
    4415           0     -2435.457520  -1908.802490  -55414.46093    143.371689
    4416           0     -2187.673584  -2188.393311  -55414.46093     71.456375
    4417           0     -1908.000977  -2436.085449  -55414.46093     16.892809
    4418           0     -1600.517090  -2648.268555  -55414.46093     41.904270
    4419           0     -1269.704834  -2821.848633  -55414.46093     58.834229
    4420           0      -920.384521  -2954.297363  -55414.46093     66.061516
    4421           0      -557.649597  -3043.683105  -55414.46093     72.579483
    4422           0      -186.789063  -3088.704102  -55414.45703     76.968193
    4423           0     -2821.431641  -1270.631104  -55038.55468    116.271019
    4424           0     -2647.742188  -1601.387451  -55038.55468    181.313171
    4425           0     -2435.457520  -1908.802368  -55038.55468    147.457199
    4426           0     -2187.673584  -2188.393311  -55038.55468     75.768387
    4427           0     -1908.000977  -2436.085449  -55038.55468     18.869513
    4428           0     -1600.517090  -2648.268555  -55038.55468     42.205807
    4429           0     -1269.704956  -2821.848633  -55038.55468     60.791771
    4430           0      -920.384644  -2954.297363  -55038.55468     69.662094
    4431           0      -557.649658  -3043.683105  -55038.55468     77.729942
    4432           0      -186.789063  -3088.704102  -55038.55468     83.040977
    4433           0     -2821.431641  -1270.631104  -54662.65234    113.745293
    4434           0     -2647.742188  -1601.387451  -54662.64843    182.659271
    4435           0     -2435.457520  -1908.802124  -54662.64843    151.221100
    4436           0     -2187.673828  -2188.393311  -54662.64843     79.769768
    4437           0     -1908.000977  -2436.085449  -54662.64843     20.742601
    4438           0     -1600.517090  -2648.268555  -54662.64843     42.463005
    4439           0     -1269.705078  -2821.848633  -54662.64843     62.702202
    4440           0      -920.384766  -2954.297363  -54662.64843     73.221725
    4441           0      -557.649658  -3043.683105  -54662.64843     82.817947
    4442           0      -186.789063  -3088.704102  -54662.64843     89.035965
    4443           0     -2821.431641  -1270.631104  -54286.74609    111.515083
    4444           0     -2647.742188  -1601.387451  -54286.74609    183.879517
    4445           0     -2435.457520  -1908.802124  -54286.74609    154.677002
    4446           0     -2187.673828  -2188.393066  -54286.74609     83.453651
    4447           0     -1908.001221  -2436.085449  -54286.74609     22.464268
    4448           0     -1600.517334  -2648.268555  -54286.74609     42.685318
    4449           0     -1269.705078  -2821.848633  -54286.74609     64.576469
    4450           0      -920.384766  -2954.297363  -54286.74609     76.741882
    4451           0      -557.649719  -3043.683105  -54286.74609     87.836899
    4452           0      -186.789063  -3088.704102  -54286.74609     94.940460
    4453           0     -2821.431641  -1270.631104  -53910.84375    109.613640
    4454           0     -2647.742188  -1601.387451  -53910.84375    185.002747
    4455           0     -2435.457520  -1908.802124  -53910.84375    157.835495
    4456           0     -2187.673828  -2188.393066  -53910.84375     86.825356
    4457           0     -1908.001221  -2436.085449  -53910.84375     24.020866
    4458           0     -1600.517334  -2648.268555  -53910.84375     42.887920
    4459           0     -1269.705200  -2821.848633  -53910.84375     66.428642
    4460           0      -920.384888  -2954.297363  -53910.84375     80.227539
    4461           0      -557.649841  -3043.683105  -53910.84765     92.783203
    4462           0      -186.789124  -3088.704102  -53910.84375    100.742264
    4463           0     -2821.431641  -1270.631104  -53534.93750    108.047264
    4464           0     -2647.742188  -1601.387451  -53534.94140    186.047501
    4465           0     -2435.457520  -1908.802124  -53534.94140    160.714508
    4466           0     -2187.673828  -2188.393066  -53534.94140     89.878174
    4467           0     -1908.001221  -2436.085205  -53534.94140     25.397314
    4468           0     -1600.517334  -2648.268555  -53534.94140     43.094608
    4469           0     -1269.705322  -2821.848389  -53534.94140     68.272728
    4470           0      -920.384888  -2954.297363  -53534.94140     83.685402
    4471           0      -557.649902  -3043.683105  -53534.94140     97.653023
    4472           0      -186.789169  -3088.704102  -53534.93750    106.428329
    4473           0     -2821.431641  -1270.631104  -53159.03906    106.838081
    4474           0     -2647.742188  -1601.387451  -53159.03906    187.037354
    4475           0     -2435.457520  -1908.802124  -53159.03906    163.325531
    4476           0     -2187.673828  -2188.393066  -53159.03906     92.631699
    4477           0     -1908.001221  -2436.084961  -53159.03906     26.613489
    4478           0     -1600.517334  -2648.268311  -53159.03906     43.334526
    4479           0     -1269.705322  -2821.848389  -53159.03906     70.127815
    4480           0      -920.385010  -2954.297363  -53159.03906     87.122147
    4481           0      -557.649902  -3043.683105  -53159.03906    102.441895
    4482           0      -186.789169  -3088.704102  -53159.03906    111.987144
    4483           0     -2821.431641  -1270.631104  -52783.13281    105.989937
    4484           0     -2647.742432  -1601.387451  -52783.13281    187.986313
    4485           0     -2435.457764  -1908.802124  -52783.13281    165.693558
    4486           0     -2187.673828  -2188.393066  -52783.13281     95.074043
    4487           0     -1908.001343  -2436.084961  -52783.13281     27.667463
    4488           0     -1600.517578  -2648.268311  -52783.13281     43.627747
    4489           0     -1269.705322  -2821.848389  -52783.13281     72.017342
    4490           0      -920.385010  -2954.297363  -52783.13281     90.545418
    4491           0      -557.649963  -3043.683105  -52783.13281    107.148003
    4492           0      -186.789169  -3088.704102  -52783.13281    117.409218
    4493           0     -2821.431641  -1270.631104  -52407.22656    105.506500
    4494           0     -2647.742432  -1601.387207  -52407.22656    188.914017
    4495           0     -2435.457764  -1908.802124  -52407.22656    167.825409
    4496           0     -2187.674072  -2188.393066  -52407.22656     97.236572
    4497           0     -1908.001465  -2436.084961  -52407.22656     28.573030
    4498           0     -1600.517578  -2648.268311  -52407.22656     44.024036
    4499           0     -1269.705444  -2821.848389  -52407.22656     73.960640
    4500           0      -920.385010  -2954.297363  -52407.22656     93.965042
    4501           0      -557.649963  -3043.683105  -52407.22656    111.769493
    4502           0      -186.789169  -3088.704102  -52407.22656    122.685371
    4503           0     -2821.431641  -1270.631104  -52031.32421    105.387505
    4504           0     -2647.742432  -1601.387207  -52031.32421    189.837921
    4505           0     -2435.457764  -1908.802002  -52031.32421    169.728943
    4506           0     -2187.674072  -2188.392822  -52031.32421     99.134377
    4507           0     -1908.001465  -2436.084961  -52031.32421     29.391319
    4508           0     -1600.517578  -2648.268311  -52031.32421     44.570789
    4509           0     -1269.705444  -2821.848389  -52031.32421     75.979042
    4510           0      -920.385132  -2954.297363  -52031.32421     97.390694
    4511           0      -557.650024  -3043.682861  -52031.32421    116.306076
    4512           0      -186.789169  -3088.704102  -52031.32421    127.806915
    4513           0     -2821.431641  -1270.631104  -51655.42187    105.628685
    4514           0     -2647.742432  -1601.387207  -51655.42578    190.767456
    4515           0     -2435.457764  -1908.802002  -51655.42578    171.426254
    4516           0     -2187.674072  -2188.392822  -51655.42578    100.766739
    4517           0     -1908.001465  -2436.084961  -51655.42187     30.136839
    4518           0     -1600.517700  -2648.268311  -51655.42187     45.301537
    4519           0     -1269.705566  -2821.848389  -51655.42187     78.099457
    4520           0      -920.385132  -2954.297363  -51655.42187    100.830452
    4521           0      -557.650085  -3043.682861  -51655.42187    120.755783
    4522           0      -186.789169  -3088.704102  -51655.42187    132.767517
    4523           0     -2821.431641  -1270.631104  -51279.51562    106.224495
    4524           0     -2647.742432  -1601.387207  -51279.51562    191.714859
    4525           0     -2435.457764  -1908.802002  -51279.51562    172.929306
    4526           0     -2187.674072  -2188.392822  -51279.51562    102.158226
    4527           0     -1908.001465  -2436.084961  -51279.51562     30.871719
    4528           0     -1600.517822  -2648.268066  -51279.51562     46.267838
    4529           0     -1269.705566  -2821.848389  -51279.51562     80.343811
    4530           0      -920.385193  -2954.297119  -51279.51562    104.294830
    4531           0      -557.650085  -3043.682861  -51279.51562    125.119125
    4532           0      -186.789169  -3088.704102  -51279.51562    137.560715
    4533           0     -2821.431641  -1270.631104  -50903.60937    107.166496
    4534           0     -2647.742432  -1601.387085  -50903.60937    192.690292
    4535           0     -2435.458008  -1908.802002  -50903.60937    174.251587
    4536           0     -2187.674316  -2188.392822  -50903.60937    103.324425
    4537           0     -1908.001709  -2436.084961  -50903.60937     31.648113
    4538           0     -1600.517822  -2648.268066  -50903.60937     47.512505
    4539           0     -1269.705566  -2821.848145  -50903.60937     82.733932
    4540           0      -920.385315  -2954.297119  -50903.60937    107.793129
    4541           0      -557.650146  -3043.682861  -50903.60937    129.395752
    4542           0      -186.789169  -3088.704102  -50903.60937    142.181778
    4543           0     -2821.431641  -1270.631104  -50527.71093    108.445122
    4544           0     -2647.742432  -1601.387085  -50527.70703    193.702713
    4545           0     -2435.458008  -1908.801758  -50527.70703    175.405045
    4546           0     -2187.674316  -2188.392822  -50527.70703    104.286980
    4547           0     -1908.001709  -2436.084717  -50527.70703     32.536446
    4548           0     -1600.517944  -2648.268066  -50527.70703     49.080765
    4549           0     -1269.705688  -2821.848145  -50527.70703     85.290428
    4550           0      -920.385376  -2954.297119  -50527.70703    111.333069
    4551           0      -557.650208  -3043.682861  -50527.70703    133.586914
    4552           0      -186.789169  -3088.704102  -50527.71093    146.626633
    4553           0     -2821.431641  -1270.631104  -50151.80468    110.050194
    4554           0     -2647.742432  -1601.387085  -50151.80078    194.759567
    4555           0     -2435.458008  -1908.801758  -50151.80078    176.402420
    4556           0     -2187.674316  -2188.392578  -50151.80078    105.068024
    4557           0     -1908.001709  -2436.084473  -50151.80078     33.607811
    4558           0     -1600.518066  -2648.268066  -50151.80078     51.008190
    4559           0     -1269.705688  -2821.848145  -50151.80078     88.033234
    4560           0      -920.385376  -2954.297119  -50151.80078    114.923805
    4561           0      -557.650208  -3043.682861  -50151.80078    137.692657
    4562           0      -186.789169  -3088.704102  -50151.80468    150.892700
    4563           0     -2821.431641  -1270.630981  -49775.90234    111.971191
    4564           0     -2647.742432  -1601.387085  -49775.90234    195.867416
    4565           0     -2435.458008  -1908.801758  -49775.90234    177.255539
    4566           0     -2187.674316  -2188.392578  -49775.90234    105.692970
    4567           0     -1908.001709  -2436.084473  -49775.90234     34.938957
    4568           0     -1600.518066  -2648.268066  -49775.90234     53.328083
    4569           0     -1269.705811  -2821.848145  -49775.90234     90.978508
    4570           0      -920.385437  -2954.297119  -49775.90234    118.570442
    4571           0      -557.650269  -3043.682861  -49775.90234    141.715378
    4572           0      -186.789169  -3088.704102  -49775.90234    154.978012
    4573           0     -2821.431641  -1270.630981  -49400.00000    114.197853
    4574           0     -2647.742432  -1601.387085  -49400.00000    197.031494
    4575           0     -2435.458008  -1908.801758  -49400.00000    177.976715
    4576           0     -2187.674316  -2188.392578  -49400.00000    106.189713
    4577           0     -1908.001831  -2436.084473  -49400.00000     36.602772
    4578           0     -1600.518066  -2648.268066  -49400.00000     56.061565
    4579           0     -1269.705811  -2821.848145  -49400.00000     94.142822
    4580           0      -920.385559  -2954.297119  -49400.00000    122.282349
    4581           0      -557.650330  -3043.682861  -49400.00000    145.654739
    4582           0      -186.789215  -3088.704102  -49400.00000    158.881699
    4583           0     -2821.431641  -1270.630981  -49024.09375    116.720367
    4584           0     -2647.742432  -1601.386963  -49024.09375    198.256317
    4585           0     -2435.458008  -1908.801758  -49024.09375    178.577835
    4586           0     -2187.674316  -2188.392578  -49024.09375    106.590019
    4587           0     -1908.001953  -2436.084473  -49024.09375     38.665680
    4588           0     -1600.518311  -2648.268066  -49024.08984     59.227123
    4589           0     -1269.706055  -2821.848145  -49024.08984     97.536461
    4590           0      -920.385681  -2954.297119  -49024.08984    126.059837
    4591           0      -557.650452  -3043.682861  -49024.08984    149.514648
    4592           0      -186.789276  -3088.704102  -49024.09375    162.604385
    4593           0     -2821.431641  -1270.630981  -48648.18750    119.529533
    4594           0     -2647.742676  -1601.386963  -48648.18359    199.545166
    4595           0     -2435.458008  -1908.801758  -48648.18359    179.071518
    4596           0     -2187.674316  -2188.392578  -48648.18359    106.928963
    4597           0     -1908.001953  -2436.084473  -48648.18359     41.183018
    4598           0     -1600.518311  -2648.267822  -48648.18359     62.829609
    4599           0     -1269.706055  -2821.848145  -48648.18359    101.174011
    4600           0      -920.385742  -2954.297119  -48648.18359    129.913895
    4601           0      -557.650513  -3043.682861  -48648.18359    153.292587
    4602           0      -186.789276  -3088.704102  -48648.18750    166.146378
    4603           0     -2821.431641  -1270.630981  -48272.28906    122.617119
    4604           0     -2647.742676  -1601.386963  -48272.28515    200.900772
    4605           0     -2435.458008  -1908.801758  -48272.28515    179.470215
    4606           0     -2187.674316  -2188.392578  -48272.28515    107.246704
    4607           0     -1908.001953  -2436.084473  -48272.28515     44.196053
    4608           0     -1600.518311  -2648.267822  -48272.28515     66.876259
    4609           0     -1269.706055  -2821.848145  -48272.28515    105.053307
    4610           0      -920.385742  -2954.297119  -48272.28515    133.838867
    4611           0      -557.650513  -3043.682861  -48272.28515    156.997162
    4612           0      -186.789276  -3088.704102  -48272.28906    169.510300
    4613           0     -2821.431641  -1270.630859  -47896.38671    125.975143
    4614           0     -2647.742676  -1601.386963  -47896.38281    202.325546
    4615           0     -2435.458008  -1908.801514  -47896.38281    179.786224
    4616           0     -2187.674316  -2188.392578  -47896.38281    107.588959
    4617           0     -1908.002075  -2436.084473  -47896.38281     47.732895
    4618           0     -1600.518555  -2648.267578  -47896.38281     71.356873
    4619           0     -1269.706055  -2821.848145  -47896.38281    109.196304
    4620           0      -920.385742  -2954.297119  -47896.38281    137.852005
    4621           0      -557.650574  -3043.682861  -47896.38281    160.620941
    4622           0      -186.789276  -3088.704102  -47896.38281    172.698303
    4623           0     -2821.431641  -1270.630859  -47520.47656    129.597290
    4624           0     -2647.742676  -1601.386963  -47520.47656    203.819107
    4625           0     -2435.458008  -1908.801514  -47520.47656    180.036407
    4626           0     -2187.674805  -2188.392334  -47520.47656    108.000816
    4627           0     -1908.002197  -2436.084473  -47520.47656     51.812450
    4628           0     -1600.518555  -2648.267578  -47520.47656     76.277458
    4629           0     -1269.706177  -2821.848145  -47520.47656    113.578728
    4630           0      -920.385864  -2954.297119  -47520.47656    141.931122
    4631           0      -557.650635  -3043.682861  -47520.47656    164.177872
    4632           0      -186.789276  -3088.704102  -47520.47656    175.716064
    4633           0     -2821.431641  -1270.630859  -47144.57812    133.476883
    4634           0     -2647.742676  -1601.386963  -47144.57812    205.382462
    4635           0     -2435.458008  -1908.801514  -47144.57812    180.235046
    4636           0     -2187.674805  -2188.392334  -47144.57812    108.539787
    4637           0     -1908.002197  -2436.084473  -47144.57812     56.438034
    4638           0     -1600.518677  -2648.267578  -47144.57812     81.623306
    4639           0     -1269.706299  -2821.847900  -47144.57812    118.215561
    4640           0      -920.385925  -2954.297119  -47144.57812    146.090332
    4641           0      -557.650635  -3043.682861  -47144.57812    167.662888
    4642           0      -186.789276  -3088.704102  -47144.57812    178.566086
    4643           0     -2821.431641  -1270.630859  -46768.67968    137.608170
    4644           0     -2647.742676  -1601.386963  -46768.68359    207.015350
    4645           0     -2435.458008  -1908.801514  -46768.68359    180.398361
    4646           0     -2187.674805  -2188.392334  -46768.68359    109.267754
    4647           0     -1908.002197  -2436.084473  -46768.68359     61.606606
    4648           0     -1600.518677  -2648.267578  -46768.68359     87.373619
    4649           0     -1269.706299  -2821.847900  -46768.68359    123.119942
    4650           0      -920.385986  -2954.297119  -46768.68359    150.340607
    4651           0      -557.650696  -3043.682861  -46768.68359    171.072525
    4652           0      -186.789276  -3088.704102  -46768.67968    181.252655
    4653           0     -2821.431641  -1270.630859  -46392.77343    141.985428
    4654           0     -2647.742676  -1601.386841  -46392.77343    208.715149
    4655           0     -2435.458008  -1908.801514  -46392.77343    180.548401
    4656           0     -2187.674805  -2188.392090  -46392.77343    110.245499
    4657           0     -1908.002197  -2436.084473  -46392.77343     67.317688
    4658           0     -1600.518677  -2648.267578  -46392.77343     93.529320
    4659           0     -1269.706299  -2821.847900  -46392.77343    128.261047
    4660           0      -920.386047  -2954.296875  -46392.77343    154.657150
    4661           0      -557.650757  -3043.682861  -46392.77343    174.418945
    4662           0      -186.789276  -3088.704102  -46392.77343    183.784195
    4663           0     -2821.431641  -1270.630859  -46016.86718    146.602554
    4664           0     -2647.742676  -1601.386841  -46016.86328    210.480713
    4665           0     -2435.458008  -1908.801514  -46016.86328    180.706085
    4666           0     -2187.674805  -2188.392090  -46016.86328    111.543846
    4667           0     -1908.002319  -2436.084229  -46016.86328     73.559265
    4668           0     -1600.518799  -2648.267578  -46016.86328    100.071945
    4669           0     -1269.706421  -2821.847900  -46016.86328    133.650711
    4670           0      -920.386047  -2954.296875  -46016.86328    159.050827
    4671           0      -557.650757  -3043.682861  -46016.86328    177.696823
    4672           0      -186.789276  -3088.704102  -46016.86718    186.166489
    4673           0     -2821.431641  -1270.630859  -45640.96093    151.453888
    4674           0     -2647.742676  -1601.386719  -45640.95703    212.308258
    4675           0     -2435.458252  -1908.801514  -45640.96093    180.897003
    4676           0     -2187.674805  -2188.392090  -45640.96093    113.233437
    4677           0     -1908.002441  -2436.083984  -45640.96093     80.327621
    4678           0     -1600.518921  -2648.267578  -45640.96484    106.992325
    4679           0     -1269.706543  -2821.847900  -45640.96484    139.269791
    4680           0      -920.386108  -2954.296875  -45640.96484    163.510391
    4681           0      -557.650818  -3043.682861  -45640.96484    180.912308
    4682           0      -186.789276  -3088.704102  -45640.96484    188.409317
    4683           0     -2821.431641  -1270.630859  -45265.05468    156.529434
    4684           0     -2647.742676  -1601.386719  -45265.05078    214.197037
    4685           0     -2435.458252  -1908.801270  -45265.05078    181.150818
    4686           0     -2187.674805  -2188.392090  -45265.05468    115.389725
    4687           0     -1908.002563  -2436.083984  -45265.05468     87.608101
    4688           0     -1600.519043  -2648.267578  -45265.06250    114.274483
    4689           0     -1269.706543  -2821.847656  -45265.06250    145.116760
    4690           0      -920.386230  -2954.296875  -45265.06250    168.032150
    4691           0      -557.650818  -3043.682861  -45265.06250    184.063721
    4692           0      -186.789276  -3088.704102  -45265.06250    190.521393
    4693           0     -2821.431641  -1270.630859  -44889.15234    161.824219
    4694           0     -2647.742676  -1601.386719  -44889.14843    216.139664
    4695           0     -2435.458496  -1908.801270  -44889.15234    181.499512
    4696           0     -2187.674805  -2188.392090  -44889.15234    118.080681
    4697           0     -1908.002563  -2436.083984  -44889.15234     95.399620
    4698           0     -1600.519043  -2648.267578  -44889.15625    121.906067
    4699           0     -1269.706543  -2821.847656  -44889.15625    151.173370
    4700           0      -920.386230  -2954.296875  -44889.15625    172.611542
    4701           0      -557.650879  -3043.682861  -44889.15625    187.154984
    4702           0      -186.789337  -3088.704102  -44889.15625    192.512283
    4703           0     -2821.431641  -1270.630859  -44513.25000    167.324356
    4704           0     -2647.742676  -1601.386719  -44513.25390    218.133270
    4705           0     -2435.458496  -1908.801270  -44513.25390    181.990692
    4706           0     -2187.674805  -2188.392090  -44513.25390    121.383522
    4707           0     -1908.002563  -2436.083984  -44513.25390    103.682564
    4708           0     -1600.519043  -2648.267578  -44513.25390    129.873413
    4709           0     -1269.706543  -2821.847656  -44513.25390    157.433914
    4710           0      -920.386230  -2954.296875  -44513.25390    177.235703
    4711           0      -557.651001  -3043.682861  -44513.25390    190.186249
    4712           0      -186.789398  -3088.704102  -44513.25000    194.394394
    4713           0     -2821.431641  -1270.630859  -44137.35156    173.017136
    4714           0     -2647.742676  -1601.386719  -44137.34765    220.171951
    4715           0     -2435.458496  -1908.801147  -44137.34765    182.651581
    4716           0     -2187.675049  -2188.392090  -44137.34765    125.343460
    4717           0     -1908.002686  -2436.083984  -44137.34765    112.464996
    4718           0     -1600.519165  -2648.267334  -44137.34765    138.160995
    4719           0     -1269.706665  -2821.847656  -44137.34765    163.876694
    4720           0      -920.386353  -2954.296875  -44137.34765    181.904526
    4721           0      -557.651062  -3043.682861  -44137.34765    193.160706
    4722           0      -186.789398  -3088.704102  -44137.34765    196.179611
    4723           0     -2821.431641  -1270.630859  -43761.44531    178.886307
    4724           0     -2647.742676  -1601.386719  -43761.44531    222.263229
    4725           0     -2435.458496  -1908.801147  -43761.44531    183.539063
    4726           0     -2187.675049  -2188.392090  -43761.44531    130.065918
    4727           0     -1908.002930  -2436.083984  -43761.44531    121.726143
    4728           0     -1600.519287  -2648.267090  -43761.44531    146.753906
    4729           0     -1269.706787  -2821.847656  -43761.44140    170.496185
    4730           0      -920.386353  -2954.296875  -43761.44140    186.598862
    4731           0      -557.651062  -3043.682861  -43761.44140    196.080200
    4732           0      -186.789398  -3088.704102  -43761.44140    197.879837
    4733           0     -2821.431641  -1270.630859  -43385.54296    184.909805
    4734           0     -2647.742676  -1601.386597  -43385.54687    224.396164
    4735           0     -2435.458496  -1908.801025  -43385.54687    184.757080
    4736           0     -2187.675293  -2188.391846  -43385.54296    135.525772
    4737           0     -1908.002930  -2436.083984  -43385.54296    131.468903
    4738           0     -1600.519287  -2648.267090  -43385.54296    155.621719
    4739           0     -1269.706787  -2821.847656  -43385.53906    177.257782
    4740           0      -920.386475  -2954.296875  -43385.53906    191.320679
    4741           0      -557.651123  -3043.682861  -43385.53125    198.946716
    4742           0      -186.789398  -3088.704102  -43385.53515    199.510208
    4743           0     -2821.431641  -1270.630859  -43009.64062    191.067169
    4744           0     -2647.742676  -1601.386597  -43009.64843    226.564758
    4745           0     -2435.458496  -1908.801025  -43009.64062    186.304565
    4746           0     -2187.675293  -2188.391846  -43009.64062    141.811661
    4747           0     -1908.002930  -2436.083984  -43009.64062    141.657944
    4748           0     -1600.519287  -2648.267090  -43009.63671    164.777832
    4749           0     -1269.706787  -2821.847656  -43009.63671    184.171875
    4750           0      -920.386475  -2954.296875  -43009.63281    196.045517
    4751           0      -557.651184  -3043.682861  -43009.62500    201.760971
    4752           0      -186.789398  -3088.704102  -43009.63281    201.083847
    4753           0     -2821.431641  -1270.630859  -42633.73828    197.323425
    4754           0     -2647.742676  -1601.386475  -42633.74218    228.779373
    4755           0     -2435.458496  -1908.801025  -42633.74218    188.300690
    4756           0     -2187.675293  -2188.391846  -42633.73828    148.958176
    4757           0     -1908.002930  -2436.083740  -42633.73828    152.313599
    4758           0     -1600.519409  -2648.267090  -42633.73828    174.158951
    4759           0     -1269.706909  -2821.847656  -42633.73437    191.176605
    4760           0      -920.386475  -2954.296875  -42633.73437    200.783279
    4761           0      -557.651184  -3043.682861  -42633.73437    204.529144
    4762           0      -186.789398  -3088.704102  -42633.73437    202.616760
    4763           0     -2821.431641  -1270.630859  -42257.83203    203.643494
    4764           0     -2647.742676  -1601.386475  -42257.83593    231.043808
    4765           0     -2435.458496  -1908.801025  -42257.83593    190.817734
    4766           0     -2187.675293  -2188.391602  -42257.83593    156.953415
    4767           0     -1908.002930  -2436.083740  -42257.83593    163.394333
    4768           0     -1600.519409  -2648.267090  -42257.83593    183.808029
    4769           0     -1269.707031  -2821.847656  -42257.83593    198.308044
    4770           0      -920.386597  -2954.296875  -42257.83593    205.488052
    4771           0      -557.651245  -3043.682861  -42257.83593    207.250977
    4772           0      -186.789398  -3088.704102  -42257.83593    204.126846
    4773           0     -2821.431641  -1270.630859  -41881.92578    209.984406
    4774           0     -2647.742676  -1601.386475  -41881.92187    233.369888
    4775           0     -2435.458496  -1908.801025  -41881.92187    193.949188
    4776           0     -2187.675293  -2188.391602  -41881.92187    165.831223
    4777           0     -1908.003052  -2436.083740  -41881.92578    174.887177
    4778           0     -1600.519653  -2648.267090  -41881.92578    193.660019
    4779           0     -1269.707153  -2821.847656  -41881.92578    205.514420
    4780           0      -920.386719  -2954.296875  -41881.92578    210.174057
    4781           0      -557.651306  -3043.682861  -41881.92578    209.935806
    4782           0      -186.789398  -3088.704102  -41881.92968    205.625809
    4783           0     -2821.431641  -1270.630859  -41506.02343    216.295425
    4784           0     -2647.742676  -1601.386475  -41506.02343    235.781158
    4785           0     -2435.458496  -1908.800903  -41506.01953    197.782745
    4786           0     -2187.675293  -2188.391602  -41506.01953    175.594589
    4787           0     -1908.003174  -2436.083496  -41506.01953    186.810272
    4788           0     -1600.519653  -2648.267090  -41506.01953    203.667480
    4789           0     -1269.707153  -2821.847656  -41506.01953    212.741028
    4790           0      -920.386841  -2954.296875  -41506.01953    214.852005
    4791           0      -557.651306  -3043.682861  -41506.01562    212.594391
    4792           0      -186.789398  -3088.704102  -41506.01953    207.124252
    4793           0     -2821.431641  -1270.630737  -41130.12500    222.519379
    4794           0     -2647.742676  -1601.386475  -41130.13281    238.298065
    4795           0     -2435.458496  -1908.800903  -41130.13281    202.434540
    4796           0     -2187.675293  -2188.391602  -41130.12890    186.232513
    4797           0     -1908.003174  -2436.083496  -41130.12890    199.102798
    4798           0     -1600.519775  -2648.267090  -41130.12500    213.858521
    4799           0     -1269.707153  -2821.847656  -41130.12500    220.021057
    4800           0      -920.386841  -2954.296875  -41130.12500    219.480194
    4801           0      -557.651367  -3043.682861  -41130.12500    215.227890
    4802           0      -186.789398  -3088.704102  -41130.12500    208.637421
    4803           0     -2821.431641  -1270.630737  -40754.21875    228.590714
    4804           0     -2647.742676  -1601.386475  -40754.22656    240.969025
    4805           0     -2435.458496  -1908.800903  -40754.22656    207.999649
    4806           0     -2187.675293  -2188.391602  -40754.22656    197.740845
    4807           0     -1908.003174  -2436.083496  -40754.22656    211.765030
    4808           0     -1600.519775  -2648.267090  -40754.22656    224.159027
    4809           0     -1269.707275  -2821.847656  -40754.22656    227.295135
    4810           0      -920.386841  -2954.296875  -40754.22656    224.076263
    4811           0      -557.651367  -3043.682861  -40754.22656    217.848572
    4812           0      -186.789398  -3088.704102  -40754.21875    210.177231
    4813           0     -2821.431641  -1270.630737  -40378.31640    234.434464
    4814           0     -2647.742920  -1601.386475  -40378.31640    243.845078
    4815           0     -2435.458740  -1908.800903  -40378.31640    214.592117
    4816           0     -2187.675537  -2188.391602  -40378.31640    210.095490
    4817           0     -1908.003174  -2436.083496  -40378.31640    224.748642
    4818           0     -1600.519775  -2648.267090  -40378.31640    234.570602
    4819           0     -1269.707275  -2821.847656  -40378.31640    234.565353
    4820           0      -920.386963  -2954.296875  -40378.31640    228.623886
    4821           0      -557.651428  -3043.682861  -40378.31640    220.461029
    4822           0      -186.789459  -3088.704102  -40378.31640    211.752731
    4823           0     -2821.431641  -1270.630737  -40002.40625    239.974396
    4824           0     -2647.742920  -1601.386475  -40002.41015    247.012360
    4825           0     -2435.458740  -1908.800781  -40002.41015    222.294708
    4826           0     -2187.675537  -2188.391602  -40002.41015    223.280167
    4827           0     -1908.003174  -2436.083496  -40002.41015    238.039841
    4828           0     -1600.519897  -2648.267090  -40002.41015    245.037125
    4829           0     -1269.707520  -2821.847168  -40002.41015    241.798996
    4830           0      -920.387085  -2954.296631  -40002.41015    233.135513
    4831           0      -557.651550  -3043.682861  -40002.41015    223.078033
    4832           0      -186.789505  -3088.704102  -40002.40625    213.369202
    4833           0     -2821.431641  -1270.630737  -39626.50390    245.122360
    4834           0     -2647.743164  -1601.386353  -39626.50000    250.556641
    4835           0     -2435.458740  -1908.800781  -39626.50000    231.222534
    4836           0     -2187.675537  -2188.391602  -39626.50000    237.258072
    4837           0     -1908.003418  -2436.083496  -39626.50000    251.585541
    4838           0     -1600.520020  -2648.266846  -39626.50000    255.542084
    4839           0     -1269.707520  -2821.847168  -39626.50000    248.984711
    4840           0      -920.387085  -2954.296631  -39626.50000    237.608383
    4841           0      -557.651611  -3043.682861  -39626.50000    225.706833
    4842           0      -186.789505  -3088.704102  -39626.50390    215.033127
    4843           0     -2821.431885  -1270.630615  -39250.59765    249.806763
    4844           0     -2647.743164  -1601.386353  -39250.59375    254.625290
    4845           0     -2435.458740  -1908.800781  -39250.59375    241.421799
    4846           0     -2187.675537  -2188.391602  -39250.59375    252.000641
    4847           0     -1908.003540  -2436.083496  -39250.59375    265.360199
    4848           0     -1600.520020  -2648.266602  -39250.59375    266.035248
    4849           0     -1269.707520  -2821.847168  -39250.59375    256.109436
    4850           0      -920.387085  -2954.296631  -39250.59375    242.052795
    4851           0      -557.651611  -3043.682861  -39250.59375    228.359253
    4852           0      -186.789505  -3088.704102  -39250.59765    216.745010
    4853           0     -2821.431885  -1270.630615  -38874.70312    253.937241
    4854           0     -2647.743164  -1601.386230  -38874.70312    259.340485
    4855           0     -2435.458740  -1908.800537  -38874.70312    253.008514
    4856           0     -2187.675781  -2188.391113  -38874.70312    267.456482
    4857           0     -1908.003540  -2436.083252  -38874.70312    279.299255
    4858           0     -1600.520264  -2648.266602  -38874.70312    276.497986
    4859           0     -1269.707520  -2821.847168  -38874.70312    263.161346
    4860           0      -920.387207  -2954.296631  -38874.69921    246.478058
    4861           0      -557.651672  -3043.682861  -38874.69921    231.039917
    4862           0      -186.789505  -3088.704102  -38874.69921    218.509186
    4863           0     -2821.431885  -1270.630615  -38498.80468    257.484283
    4864           0     -2647.743164  -1601.386230  -38498.80859    264.942017
    4865           0     -2435.458740  -1908.800537  -38498.80859    265.959625
    4866           0     -2187.675781  -2188.391113  -38498.80859    283.579132
    4867           0     -1908.003540  -2436.083252  -38498.80859    293.373810
    4868           0     -1600.520264  -2648.266602  -38498.80468    286.882111
    4869           0     -1269.707520  -2821.847168  -38498.80468    270.145996
    4870           0      -920.387268  -2954.296631  -38498.80468    250.891724
    4871           0      -557.651733  -3043.682861  -38498.80468    233.759430
    4872           0      -186.789505  -3088.704102  -38498.80078    220.322144
    4873           0     -2821.431885  -1270.630615  -38122.89453    260.379242
    4874           0     -2647.743164  -1601.386230  -38122.90234    271.556427
    4875           0     -2435.458984  -1908.800537  -38122.89843    280.408173
    4876           0     -2187.675781  -2188.391113  -38122.89843    300.308624
    4877           0     -1908.003662  -2436.083252  -38122.89843    307.501312
    4878           0     -1600.520264  -2648.266602  -38122.89843    297.179840
    4879           0     -1269.707642  -2821.847168  -38122.89843    277.052704
    4880           0      -920.387329  -2954.296631  -38122.89453    255.312469
    4881           0      -557.651733  -3043.682861  -38122.89453    236.517334
    4882           0      -186.789505  -3088.704102  -38122.89453    222.185760
    4883           0     -2821.431885  -1270.630615  -37746.98828    262.718842
    4884           0     -2647.743164  -1601.386230  -37746.99218    279.572113
    4885           0     -2435.458984  -1908.800537  -37746.98828    296.215759
    4886           0     -2187.675781  -2188.391113  -37746.98828    317.558105
    4887           0     -1908.003662  -2436.083252  -37746.98828    321.660706
    4888           0     -1600.520264  -2648.266602  -37746.98828    307.348267
    4889           0     -1269.707764  -2821.847168  -37746.98828    283.909576
    4890           0      -920.387390  -2954.296631  -37746.98828    259.739960
    4891           0      -557.651733  -3043.682861  -37746.98828    239.323090
    4892           0      -186.789505  -3088.704102  -37746.98828    224.095047
    4893           0     -2821.431885  -1270.630615  -37371.08593    264.484985
    4894           0     -2647.743164  -1601.386230  -37371.08203    288.987549
    4895           0     -2435.458984  -1908.800537  -37371.08203    313.563477
    4896           0     -2187.675781  -2188.391113  -37371.08203    335.290710
    4897           0     -1908.003906  -2436.083008  -37371.08203    335.753265
    4898           0     -1600.520386  -2648.266602  -37371.07812    317.405731
    4899           0     -1269.707764  -2821.847168  -37371.07812    290.703491
    4900           0      -920.387390  -2954.296631  -37371.07812    264.196411
    4901           0      -557.651855  -3043.682861  -37371.07812    242.168396
    4902           0      -186.789505  -3088.704102  -37371.08203    226.053467
    4903           0     -2821.431885  -1270.630615  -36995.18359    266.083649
    4904           0     -2647.743164  -1601.386230  -36995.17968    300.511322
    4905           0     -2435.458984  -1908.800537  -36995.17968    332.157410
    4906           0     -2187.675781  -2188.391113  -36995.17968    353.322906
    4907           0     -1908.003906  -2436.083008  -36995.17578    349.776642
    4908           0     -1600.520508  -2648.266602  -36995.17187    327.314301
    4909           0     -1269.707764  -2821.847168  -36995.17187    297.482635
    4910           0      -920.387390  -2954.296631  -36995.17187    268.671265
    4911           0      -557.651855  -3043.682861  -36995.17187    245.067688
    4912           0      -186.789505  -3088.704102  -36995.17578    228.052292
    4913           0     -2821.431885  -1270.630615  -36619.27734    267.504486
    4914           0     -2647.743164  -1601.386230  -36619.28125    313.565491
    4915           0     -2435.458984  -1908.800537  -36619.27734    352.189423
    4916           0     -2187.675781  -2188.391113  -36619.27734    371.703339
    4917           0     -1908.003906  -2436.083008  -36619.27734    363.636627
    4918           0     -1600.520508  -2648.266602  -36619.27734    337.134308
    4919           0     -1269.707886  -2821.847168  -36619.27343    304.213440
    4920           0      -920.387512  -2954.296631  -36619.27343    273.186005
    4921           0      -557.651855  -3043.682617  -36619.27343    247.999741
    4922           0      -186.789505  -3088.704102  -36619.27734    230.095764
    4923           0     -2821.431885  -1270.630615  -36243.37500    269.881195
    4924           0     -2647.743164  -1601.386230  -36243.37500    329.880280
    4925           0     -2435.458984  -1908.800415  -36243.37500    373.411621
    4926           0     -2187.676025  -2188.391113  -36243.37500    390.145294
    4927           0     -1908.003906  -2436.083008  -36243.37500    377.398193
    4928           0     -1600.520508  -2648.266602  -36243.37500    346.837006
    4929           0     -1269.708008  -2821.847168  -36243.37500    310.980988
    4930           0      -920.387634  -2954.296631  -36243.37500    277.739258
    4931           0      -557.651978  -3043.682617  -36243.37500    251.001541
    4932           0      -186.789505  -3088.704102  -36243.37500    232.182053
    4933           0     -2821.431885  -1270.630615  -35867.46875    272.742523
    4934           0     -2647.743164  -1601.386230  -35867.46093    346.691833
    4935           0     -2435.458984  -1908.800415  -35867.46093    395.261536
    4936           0     -2187.676270  -2188.391113  -35867.46093    408.550598
    4937           0     -1908.004028  -2436.083008  -35867.46484    390.808533
    4938           0     -1600.520752  -2648.266602  -35867.46484    356.395996
    4939           0     -1269.708008  -2821.847168  -35867.46484    317.614075
    4940           0      -920.387634  -2954.296631  -35867.46484    282.280975
    4941           0      -557.651978  -3043.682617  -35867.46484    253.968475
    4942           0      -186.789551  -3088.704102  -35867.46875    234.272079
    4943           0     -2821.431885  -1270.630615  -35491.56250    279.096222
    4944           0     -2647.743164  -1601.385986  -35491.55468    369.749115
    4945           0     -2435.458984  -1908.800415  -35491.55468    419.587189
    4946           0     -2187.676270  -2188.391113  -35491.55468    427.677002
    4947           0     -1908.004150  -2436.083008  -35491.55468    404.803650
    4948           0     -1600.520752  -2648.266357  -35491.55468    366.287231
    4949           0     -1269.708008  -2821.847168  -35491.55468    324.666534
    4950           0      -920.387695  -2954.296631  -35491.55859    287.126373
    4951           0      -557.652100  -3043.682617  -35491.55859    257.204193
    4952           0      -186.789612  -3088.704102  -35491.56250    236.567963
    4953           0     -2821.431885  -1270.630615  -35115.65625    285.898712
    4954           0     -2647.743164  -1601.385986  -35115.64843    388.021088
    4955           0     -2435.458984  -1908.800293  -35115.64843    440.002228
    4956           0     -2187.676270  -2188.390869  -35115.64843    444.021454
    4957           0     -1908.004150  -2436.082764  -35115.64843    416.495300
    4958           0     -1600.520874  -2648.266357  -35115.64843    374.606812
    4959           0     -1269.708008  -2821.847168  -35115.64843    330.496826
    4960           0      -920.387695  -2954.296631  -35115.64843    291.115570
    4961           0      -557.652161  -3043.682617  -35115.64843    259.709839
    4962           0      -186.789612  -3088.704102  -35115.65625    238.339798
    4963           0     -2821.431885  -1270.630615  -34739.75781    301.487152
    4964           0     -2647.743164  -1601.385986  -34739.75390    421.716095
    4965           0     -2435.458984  -1908.800293  -34739.75390    470.695953
    4966           0     -2187.676270  -2188.390869  -34739.75390    467.225281
    4967           0     -1908.004150  -2436.082764  -34739.75390    433.539825
    4968           0     -1600.520874  -2648.266113  -34739.75390    386.730560
    4969           0     -1269.708252  -2821.847168  -34739.75390    339.636841
    4970           0      -920.387756  -2954.296387  -34739.75390    297.388031
    4971           0      -557.652161  -3043.682617  -34739.75390    264.251678
    4972           0      -186.789612  -3088.704102  -34739.75781    241.653091
    4973           0     -2821.431885  -1270.630615  -34363.85937    315.509735
    4974           0     -2647.743164  -1601.385986  -34363.86328    439.239227
    4975           0     -2435.458984  -1908.800293  -34363.86328    486.788727
    4976           0     -2187.676270  -2188.390625  -34363.86328    480.706482
    4977           0     -1908.004150  -2436.082764  -34363.86328    442.244812
    4978           0     -1600.520874  -2648.266113  -34363.86328    393.820496
    4979           0     -1269.708252  -2821.846924  -34363.86328    344.435303
    4980           0      -920.387878  -2954.296387  -34363.86328    300.919067
    4981           0      -557.652222  -3043.682617  -34363.86328    266.501465
    4982           0      -186.789612  -3088.704102  -34363.85937    243.340591
    4983           0     -2821.431885  -1270.630615  -33987.95312    335.286926
    4984           0     -2647.743164  -1601.385864  -33987.95312    455.839264
    4985           0     -2435.458984  -1908.800293  -33987.95312    497.538635
    4986           0     -2187.676270  -2188.390625  -33987.95312    480.942383
    4987           0     -1908.004395  -2436.082764  -33987.95312    438.184845
    4988           0     -1600.520996  -2648.266113  -33987.95312    387.045624
    4989           0     -1269.708374  -2821.846924  -33987.95312    336.516541
    4990           0      -920.387939  -2954.296387  -33987.95312    292.319885
    4991           0      -557.652283  -3043.682617  -33987.95312    257.585999
    4992           0      -186.789612  -3088.704102  -33987.95312    234.410141
    4993           0      3088.698242    186.835236  -33612.22265    457.605347
    4994           0      3043.657227    557.778564  -33612.22265    436.521606
    4995           0      2954.232910    920.583740  -33612.22265    403.544250
    4996           0      2821.730225   1269.962524  -33612.22265    372.247375
    4997           0      2648.081055   1600.822510  -33612.22265    351.365112
    4998           0      2435.816406   1908.340698  -33612.22265    344.745239
    4999           0      2188.029785   2188.033447  -33612.22265    352.596771
    5000           0      1908.335938   2435.820068  -33612.22265    371.803925
    5001           0      1600.816650   2648.084717  -33612.22265    397.440033
    5002           0      1269.956299   2821.732910  -33612.22265    423.834991
    5003           0       920.578003   2954.234619  -33612.22265    445.847687
    5004           0       557.774414   3043.657959  -33612.22265    459.441986
    5005           0       186.833771   3088.698730  -33612.22265    462.041443
    5006           0      3088.698242    186.836029  -33236.66796    455.535614
    5007           0      3043.656738    557.780640  -33236.66796    439.466217
    5008           0      2954.231934    920.586426  -33236.66796    409.755768
    5009           0      2821.729004   1269.965088  -33236.66796    380.603363
    5010           0      2648.079590   1600.824951  -33236.66796    361.154449
    5011           0      2435.815186   1908.342407  -33236.66796    355.652863
    5012           0      2188.028809   2188.034424  -33236.66796    364.256897
    5013           0      1908.335693   2435.820313  -33236.66796    383.933624
    5014           0      1600.816895   2648.084473  -33236.66796    409.691833
    5015           0      1269.957275   2821.732910  -33236.66796    435.965820
    5016           0       920.579468   2954.234375  -33236.66796    457.655640
    5017           0       557.775757   3043.657959  -33236.66796    470.851959
    5018           0       186.834488   3088.698242  -33236.66796    473.042389
    5019           0      3088.698242    186.835999  -32861.11328    443.794037
    5020           0      3043.656738    557.780518  -32861.11328    430.662750
    5021           0      2954.231934    920.586304  -32861.11328    402.779510
    5022           0      2821.729004   1269.965088  -32861.11328    375.352570
    5023           0      2648.079590   1600.824951  -32861.11328    357.048187
    5024           0      2435.815430   1908.342407  -32861.11328    352.428864
    5025           0      2188.028809   2188.034424  -32861.11328    361.430878
    5026           0      1908.335693   2435.820313  -32861.11328    381.128693
    5027           0      1600.816895   2648.084473  -32861.11328    406.533783
    5028           0      1269.957275   2821.732910  -32861.11328    432.239655
    5029           0       920.579468   2954.234375  -32861.11328    453.290741
    5030           0       557.775757   3043.657959  -32861.11328    465.960388
    5031           0       186.834488   3088.698242  -32861.11328    467.865356
    5032           0      3088.698242    186.835999  -32485.55664    422.431854
    5033           0      3043.656738    557.780518  -32485.55664    413.691284
    5034           0      2954.231934    920.586304  -32485.55664    390.298767
    5035           0      2821.729004   1269.965088  -32485.55664    365.731018
    5036           0      2648.079590   1600.824951  -32485.55664    349.581909
    5037           0      2435.815430   1908.342285  -32485.55664    345.947113
    5038           0      2188.028809   2188.034424  -32485.55664    355.157776
    5039           0      1908.335693   2435.820313  -32485.55664    374.183502
    5040           0      1600.816895   2648.084473  -32485.55664    398.432343
    5041           0      1269.957275   2821.732910  -32485.55664    422.690948
    5042           0       920.579468   2954.234375  -32485.55664    442.401093
    5043           0       557.775757   3043.657959  -32485.55664    454.057098
    5044           0       186.834488   3088.698242  -32485.55664    455.521179
    5045           0      3088.698242    186.835968  -32110.00000    408.296112
    5046           0      3043.656738    557.780457  -32110.00000    402.246857
    5047           0      2954.231934    920.586182  -32110.00000    381.667084
    5048           0      2821.729004   1269.964966  -32110.00000    359.377136
    5049           0      2648.079590   1600.824829  -32110.00000    344.727600
    5050           0      2435.815430   1908.342285  -32110.00000    342.138702
    5051           0      2188.028809   2188.034424  -32110.00000    351.720154
    5052           0      1908.335693   2435.820313  -32110.00000    370.647797
    5053           0      1600.816895   2648.084473  -32110.00000    394.308685
    5054           0      1269.957153   2821.732910  -32110.00000    417.769836
    5055           0       920.579346   2954.234375  -32110.00000    436.610107
    5056           0       557.775696   3043.657959  -32110.00000    447.595276
    5057           0       186.834412   3088.698242  -32110.00000    448.702087
    5058           0      3088.698242    186.835968  -31734.44531    391.208038
    5059           0      3043.656738    557.780457  -31734.44531    388.623871
    5060           0      2954.231934    920.586121  -31734.44531    371.436188
    5061           0      2821.729004   1269.964844  -31734.44531    351.764496
    5062           0      2648.079590   1600.824829  -31734.44531    338.908875
    5063           0      2435.815430   1908.342285  -31734.44531    337.322876
    5064           0      2188.028809   2188.034424  -31734.44531    347.210236
    5065           0      1908.335693   2435.820313  -31734.44531    365.762421
    5066           0      1600.816895   2648.084473  -31734.44531    388.592834
    5067           0      1269.957153   2821.732910  -31734.44531    410.948975
    5068           0       920.579346   2954.234375  -31734.44531    428.717896
    5069           0       557.775574   3043.657959  -31734.44531    438.866547
    5070           0       186.834335   3088.698242  -31734.44531    439.583160
    5071           0      3088.698242    186.835938  -31358.88867    375.166321
    5072           0      3043.656738    557.780396  -31358.88867    375.799988
    5073           0      2954.232178    920.586121  -31358.88867    361.576874
    5074           0      2821.729492   1269.964844  -31358.88867    344.472076
    5075           0      2648.079834   1600.824707  -31358.88867    333.349457
    5076           0      2435.815430   1908.342285  -31358.88867    332.814056
    5077           0      2188.028809   2188.034424  -31358.88867    343.057281
    5078           0      1908.335693   2435.820313  -31358.88867    361.369934
    5079           0      1600.816895   2648.084473  -31358.88867    383.478821
    5080           0      1269.957153   2821.732910  -31358.88867    404.866486
    5081           0       920.579224   2954.234375  -31358.88867    421.641479
    5082           0       557.775513   3043.657959  -31358.88867    431.021454
    5083           0       186.834335   3088.698242  -31358.88867    431.356964
    5084           0      3088.698242    186.835922  -30983.33398    358.837372
    5085           0      3043.656738    557.780334  -30983.33398    362.767120
    5086           0      2954.232178    920.586060  -30983.33398    351.634583
    5087           0      2821.729492   1269.964844  -30983.33398    337.038361
    5088           0      2648.079834   1600.824707  -30983.33398    327.750031
    5089           0      2435.815430   1908.342285  -30983.33398    328.242096
    5090           0      2188.028809   2188.034424  -30983.33398    338.842285
    5091           0      1908.335693   2435.820313  -30983.33398    356.873016
    5092           0      1600.816895   2648.084473  -30983.33398    378.236298
    5093           0      1269.957153   2821.732910  -30983.33398    398.610748
    5094           0       920.579224   2954.234375  -30983.33398    414.371002
    5095           0       557.775513   3043.657959  -30983.33398    422.956818
    5096           0       186.834335   3088.698242  -30983.33398    422.911377
    5097           0      3088.698242    186.835907  -30607.77734    342.609985
    5098           0      3043.656738    557.780273  -30607.77734    349.730530
    5099           0      2954.232178    920.585938  -30607.77734    341.656464
    5100           0      2821.729492   1269.964722  -30607.77734    329.603302
    5101           0      2648.079834   1600.824707  -30607.77734    322.134674
    5102           0      2435.815430   1908.342285  -30607.77734    323.709198
    5103           0      2188.028809   2188.034424  -30607.77734    334.667786
    5104           0      1908.335693   2435.820313  -30607.77734    352.449463
    5105           0      1600.816895   2648.084473  -30607.77734    373.080139
    5106           0      1269.957153   2821.732910  -30607.77734    392.469269
    5107           0       920.579224   2954.234375  -30607.77734    407.220703
    5108           0       557.775513   3043.657959  -30607.77734    415.024109
    5109           0       186.834335   3088.698242  -30607.77734    414.595856
    5110           0      3088.698242    186.835876  -30232.22265    326.596039
    5111           0      3043.656738    557.780273  -30232.22265    336.616760
    5112           0      2954.232178    920.585938  -30232.22265    331.675018
    5113           0      2821.729492   1269.964722  -30232.22265    322.135834
    5114           0      2648.080078   1600.824707  -30232.22265    316.527710
    5115           0      2435.815430   1908.342041  -30232.22265    319.186005
    5116           0      2188.029053   2188.034180  -30232.22265    330.521332
    5117           0      1908.335693   2435.820313  -30232.22265    348.047699
    5118           0      1600.816895   2648.084473  -30232.22265    367.955109
    5119           0      1269.957153   2821.732910  -30232.22265    386.352203
    5120           0       920.579224   2954.234375  -30232.22265    400.100861
    5121           0       557.775513   3043.657959  -30232.22265    407.117340
    5122           0       186.834335   3088.698242  -30232.22265    406.310272
    5123           0      3088.698242    186.835876  -29856.66796    310.827332
    5124           0      3043.656738    557.780151  -29856.66796    323.448486
    5125           0      2954.232178    920.585815  -29856.66796    321.624756
    5126           0      2821.729492   1269.964600  -29856.66796    314.665344
    5127           0      2648.080078   1600.824463  -29856.66796    310.912231
    5128           0      2435.815430   1908.342041  -29856.66796    314.688202
    5129           0      2188.029053   2188.034180  -29856.66796    326.396484
    5130           0      1908.335693   2435.820313  -29856.66796    343.684723
    5131           0      1600.816895   2648.084473  -29856.66796    362.869904
    5132           0      1269.957153   2821.732910  -29856.66796    380.285950
    5133           0       920.579224   2954.234375  -29856.66796    393.032196
    5134           0       557.775513   3043.657959  -29856.66796    399.266510
    5135           0       186.834335   3088.698242  -29856.66796    398.078857
    5136           0      3088.698242    186.835846  -29481.10937    295.511902
    5137           0      3043.656738    557.780151  -29481.10937    310.242493
    5138           0      2954.232178    920.585815  -29481.10937    311.528900
    5139           0      2821.729492   1269.964600  -29481.10937    307.177490
    5140           0      2648.080078   1600.824463  -29481.10937    305.310272
    5141           0      2435.815430   1908.342041  -29481.10937    310.206085
    5142           0      2188.029053   2188.034180  -29481.10937    322.309357
    5143           0      1908.335693   2435.820313  -29481.10937    339.349518
    5144           0      1600.816895   2648.084473  -29481.10937    357.825256
    5145           0      1269.957031   2821.732910  -29481.10937    374.261597
    5146           0       920.579102   2954.234375  -29481.10937    386.011353
    5147           0       557.775513   3043.657959  -29481.10937    391.464081
    5148           0       186.834335   3088.698242  -29481.10937    389.899139
    5149           0      3088.698242    186.835831  -29105.55468    280.698578
    5150           0      3043.656738    557.780090  -29105.55468    297.058563
    5151           0      2954.232178    920.585693  -29105.55468    301.360901
    5152           0      2821.729492   1269.964478  -29105.55468    299.684570
    5153           0      2648.080078   1600.824463  -29105.55468    299.717255
    5154           0      2435.815430   1908.342041  -29105.55468    305.751343
    5155           0      2188.029053   2188.034180  -29105.55468    318.247070
    5156           0      1908.335693   2435.820313  -29105.55468    335.052643
    5157           0      1600.816895   2648.084473  -29105.55468    352.816010
    5158           0      1269.957031   2821.732910  -29105.55468    368.282013
    5159           0       920.579041   2954.234375  -29105.55468    379.036896
    5160           0       557.775513   3043.657959  -29105.55468    383.712738
    5161           0       186.834335   3088.698242  -29105.55468    381.770996
    5162           0      3088.698242    186.835815  -28729.99804    266.544922
    5163           0      3043.656738    557.780029  -28729.99804    283.931610
    5164           0      2954.232178    920.585632  -28729.99804    291.139374
    5165           0      2821.729492   1269.964355  -28729.99804    292.169586
    5166           0      2648.080078   1600.824341  -28729.99804    294.148895
    5167           0      2435.815430   1908.342041  -28729.99804    301.318024
    5168           0      2188.029053   2188.034180  -28729.99804    314.219910
    5169           0      1908.335693   2435.820313  -28729.99804    330.786652
    5170           0      1600.816895   2648.084473  -28729.99804    347.844879
    5171           0      1269.957031   2821.732910  -28729.99804    362.342712
    5172           0       920.579041   2954.234375  -28729.99804    372.109222
    5173           0       557.775391   3043.657959  -28729.99804    376.010376
    5174           0       186.834259   3088.698242  -28729.99804    373.695404
    5175           0      3088.698242    186.835785  -28354.44335    253.116119
    5176           0      3043.656738    557.780029  -28354.44335    270.934631
    5177           0      2954.232178    920.585632  -28354.44335    280.874115
    5178           0      2821.729492   1269.964355  -28354.44335    284.643188
    5179           0      2648.080078   1600.824341  -28354.44335    288.592865
    5180           0      2435.815430   1908.342041  -28354.44335    296.918762
    5181           0      2188.029053   2188.034180  -28354.44335    310.220215
    5182           0      1908.335693   2435.820313  -28354.44335    326.555756
    5183           0      1600.816895   2648.084473  -28354.44335    342.908875
    5184           0      1269.956909   2821.732910  -28354.44335    356.444244
    5185           0       920.578979   2954.234375  -28354.44335    365.226990
    5186           0       557.775269   3043.657959  -28354.44335    368.358612
    5187           0       186.834198   3088.698242  -28354.44335    365.672058
    5188           0      3088.698242    186.835785  -27978.88867    240.526245
    5189           0      3043.656738    557.780029  -27978.88867    258.114227
    5190           0      2954.232422    920.585571  -27978.88867    270.590607
    5191           0      2821.729736   1269.964355  -27978.88867    277.092133
    5192           0      2648.080078   1600.824219  -27978.88867    283.064758
    5193           0      2435.815674   1908.341919  -27978.88867    292.551392
    5194           0      2188.029053   2188.034180  -27978.88867    306.253876
    5195           0      1908.335693   2435.820313  -27978.88867    322.355072
    5196           0      1600.816895   2648.084473  -27978.88867    338.008575
    5197           0      1269.956787   2821.732910  -27978.88867    350.584473
    5198           0       920.578857   2954.234375  -27978.88867    358.390228
    5199           0       557.775208   3043.657959  -27978.88867    360.756653
    5200           0       186.834198   3088.698242  -27978.88867    357.702087
    5201           0      3088.698242    186.835754  -27603.33398    228.836197
    5202           0      3043.656738    557.779907  -27603.33398    245.536392
    5203           0      2954.232422    920.585571  -27603.33398    260.305115
    5204           0      2821.729736   1269.964355  -27603.33398    269.540161
    5205           0      2648.080078   1600.824219  -27603.33398    277.557434
    5206           0      2435.815674   1908.341675  -27603.33398    288.215546
    5207           0      2188.029297   2188.034180  -27603.33398    302.317932
    5208           0      1908.335693   2435.820313  -27603.33398    318.187225
    5209           0      1600.816895   2648.084473  -27603.33398    333.140594
    5210           0      1269.956787   2821.732910  -27603.33398    344.764343
    5211           0       920.578857   2954.234375  -27603.33398    351.596985
    5212           0       557.775208   3043.657959  -27603.33398    353.205414
    5213           0       186.834198   3088.698242  -27603.33398    349.786560
    5214           0      3088.698242    186.835754  -27227.77734    218.121078
    5215           0      3043.656738    557.779846  -27227.77734    233.244293
    5216           0      2954.232422    920.585449  -27227.77734    250.066010
    5217           0      2821.729736   1269.964233  -27227.77734    261.985718
    5218           0      2648.080078   1600.824219  -27227.77734    272.069458
    5219           0      2435.815918   1908.341675  -27227.77734    283.915253
    5220           0      2188.029297   2188.034180  -27227.77734    298.414063
    5221           0      1908.335815   2435.820313  -27227.77734    314.047119
    5222           0      1600.816895   2648.084473  -27227.77734    328.306244
    5223           0      1269.956787   2821.732910  -27227.77734    338.980133
    5224           0       920.578857   2954.234375  -27227.77734    344.848572
    5225           0       557.775208   3043.657959  -27227.77734    345.704193
    5226           0       186.834198   3088.698242  -27227.77734    341.926544
    5227           0      3088.698242    186.835724  -26852.22265    208.422241
    5228           0      3043.656738    557.779785  -26852.22265    221.302139
    5229           0      2954.232422    920.585388  -26852.22265    239.889221
    5230           0      2821.729736   1269.964111  -26852.22265    254.447556
    5231           0      2648.080078   1600.823975  -26852.22265    266.608826
    5232           0      2435.815918   1908.341675  -26852.22265    279.648010
    5233           0      2188.029297   2188.034180  -26852.22265    294.539886
    5234           0      1908.335815   2435.820313  -26852.22265    309.936768
    5235           0      1600.816895   2648.084473  -26852.22265    323.501495
    5236           0      1269.956787   2821.732910  -26852.22265    333.232635
    5237           0       920.578796   2954.234375  -26852.22265    338.143066
    5238           0       557.775208   3043.657959  -26852.22265    338.253967
    5239           0       186.834198   3088.698242  -26852.22265    334.122772
    5240           0      3088.698242    186.835693  -26476.66796    199.780197
    5241           0      3043.656738    557.779785  -26476.66796    209.745773
    5242           0      2954.232422    920.585327  -26476.66796    229.816132
    5243           0      2821.729736   1269.964111  -26476.66796    246.944962
    5244           0      2648.080078   1600.823975  -26476.66796    261.170532
    5245           0      2435.815918   1908.341675  -26476.66796    275.408783
    5246           0      2188.029297   2188.034180  -26476.66796    290.697815
    5247           0      1908.335815   2435.820313  -26476.66796    305.852203
    5248           0      1600.816895   2648.084473  -26476.66796    318.725433
    5249           0      1269.956787   2821.732910  -26476.66796    327.519043
    5250           0       920.578735   2954.234375  -26476.66796    331.479889
    5251           0       557.775208   3043.657959  -26476.66796    330.854675
    5252           0       186.834198   3088.698242  -26476.66796    326.375183
    5253           0      3088.698242    186.835693  -26101.11132    192.206894
    5254           0      3043.656738    557.779724  -26101.11132    198.630127
    5255           0      2954.232422    920.585327  -26101.11132    219.873352
    5256           0      2821.729736   1269.963989  -26101.11132    239.495026
    5257           0      2648.080078   1600.823975  -26101.11132    255.767471
    5258           0      2435.815918   1908.341675  -26101.11132    271.200775
    5259           0      2188.029297   2188.034180  -26101.11132    286.881439
    5260           0      1908.335815   2435.820313  -26101.11132    301.794281
    5261           0      1600.816895   2648.084473  -26101.11132    313.976532
    5262           0      1269.956787   2821.732910  -26101.11132    321.839996
    5263           0       920.578735   2954.234375  -26101.11132    324.859741
    5264           0       557.775208   3043.657959  -26101.11132    323.508362
    5265           0       186.834198   3088.698242  -26101.11132    318.687256
    5266           0      3088.698242    186.835663  -25725.55468    185.703064
    5267           0      3043.656738    557.779724  -25725.55468    187.988953
    5268           0      2954.232422    920.585144  -25725.55468    210.091690
    5269           0      2821.729736   1269.963989  -25725.55468    232.119553
    5270           0      2648.080322   1600.823975  -25725.55468    250.404663
    5271           0      2435.815918   1908.341675  -25725.55468    267.017395
    5272           0      2188.029297   2188.034180  -25725.55468    283.089172
    5273           0      1908.335815   2435.820313  -25725.55468    297.758728
    5274           0      1600.816895   2648.084473  -25725.55468    309.253662
    5275           0      1269.956787   2821.732910  -25725.55468    316.192596
    5276           0       920.578735   2954.234375  -25725.55468    318.282288
    5277           0       557.775208   3043.657959  -25725.55468    316.214386
    5278           0       186.834198   3088.698242  -25725.55468    311.059967
    5279           0      3088.698242    186.835663  -25349.99804    180.242996
    5280           0      3043.656738    557.779663  -25349.99804    177.861343
    5281           0      2954.232422    920.585144  -25349.99804    200.498184
    5282           0      2821.729736   1269.963867  -25349.99804    224.839493
    5283           0      2648.080322   1600.823975  -25349.99804    245.089478
    5284           0      2435.815918   1908.341553  -25349.99804    262.860321
    5285           0      2188.029297   2188.034180  -25349.99804    279.314484
    5286           0      1908.335693   2435.820313  -25349.99804    293.743195
    5287           0      1600.816772   2648.084473  -25349.99804    304.553833
    5288           0      1269.956787   2821.732910  -25349.99804    310.576599
    5289           0       920.578735   2954.234375  -25349.99804    311.746490
    5290           0       557.775146   3043.657959  -25349.99804    308.973877
    5291           0       186.834137   3088.698242  -25349.99804    303.494293
    5292           0      3088.698242    186.835632  -24974.44335    175.786957
    5293           0      3043.656738    557.779541  -24974.44335    168.277328
    5294           0      2954.232422    920.585083  -24974.44335    191.117859
    5295           0      2821.729736   1269.963867  -24974.44335    217.677734
    5296           0      2648.080566   1600.823853  -24974.44335    239.834335
    5297           0      2435.815918   1908.341553  -24974.44335    258.724609
    5298           0      2188.029297   2188.034180  -24974.44335    275.553772
    5299           0      1908.335693   2435.820313  -24974.44335    289.743103
    5300           0      1600.816650   2648.084473  -24974.44335    299.875671
    5301           0      1269.956787   2821.732910  -24974.44335    304.989807
    5302           0       920.578735   2954.234375  -24974.44335    305.251862
    5303           0       557.775085   3043.657959  -24974.44335    301.788116
    5304           0       186.834061   3088.698242  -24974.44335    295.991089
    5305           0      3088.698242    186.835602  -24598.88867    172.274261
    5306           0      3043.656738    557.779480  -24598.88867    159.267029
    5307           0      2954.232422    920.584961  -24598.88867    181.974670
    5308           0      2821.729736   1269.963867  -24598.88867    210.655319
    5309           0      2648.080566   1600.823730  -24598.88867    234.647919
    5310           0      2435.815918   1908.341431  -24598.88867    254.611160
    5311           0      2188.029297   2188.034180  -24598.88867    271.799896
    5312           0      1908.335693   2435.820313  -24598.88867    285.754150
    5313           0      1600.816650   2648.084473  -24598.88867    295.215546
    5314           0      1269.956787   2821.732910  -24598.88867    299.432037
    5315           0       920.578735   2954.234375  -24598.88867    298.799042
    5316           0       557.775085   3043.657959  -24598.88867    294.657043
    5317           0       186.834061   3088.698242  -24598.88867    288.552704
    5318           0      3088.698242    186.835602  -24223.33398    169.629166
    5319           0      3043.656982    557.779480  -24223.33398    150.852356
    5320           0      2954.232422    920.584961  -24223.33398    173.091446
    5321           0      2821.729736   1269.963745  -24223.33398    203.788345
    5322           0      2648.080566   1600.823730  -24223.33398    229.539337
    5323           0      2435.815918   1908.341309  -24223.33398    250.521072
    5324           0      2188.029297   2188.033936  -24223.33398    268.048523
    5325           0      1908.335693   2435.820313  -24223.33398    281.769806
    5326           0      1600.816650   2648.084473  -24223.33398    290.571777
    5327           0      1269.956787   2821.732910  -24223.33398    293.900696
    5328           0       920.578674   2954.234375  -24223.33398    292.387268
    5329           0       557.775024   3043.657959  -24223.33398    287.582520
    5330           0       186.834061   3088.698242  -24223.33398    281.180389
    5331           0      3088.698242    186.835571  -23847.77734    167.770203
    5332           0      3043.656982    557.779419  -23847.77734    143.051361
    5333           0      2954.232422    920.584900  -23847.77734    164.484940
    5334           0      2821.729736   1269.963623  -23847.77734    197.099762
    5335           0      2648.080566   1600.823730  -23847.77734    224.522552
    5336           0      2435.815918   1908.341309  -23847.77734    246.451996
    5337           0      2188.029297   2188.033936  -23847.77734    264.292328
    5338           0      1908.335693   2435.820313  -23847.77734    277.785065
    5339           0      1600.816650   2648.084473  -23847.77734    285.938324
    5340           0      1269.956665   2821.732910  -23847.77734    288.395538
    5341           0       920.578552   2954.234375  -23847.77734    286.016815
    5342           0       557.774963   3043.657959  -23847.77734    280.564087
    5343           0       186.834061   3088.698242  -23847.77734    273.876282
    5344           0      3088.698242    186.835571  -23472.22265    166.594208
    5345           0      3043.657227    557.779419  -23472.22265    135.882553
    5346           0      2954.232910    920.584839  -23472.22265    156.174194
    5347           0      2821.729980   1269.963623  -23472.22265    190.603958
    5348           0      2648.080566   1600.823730  -23472.22265    219.604797
    5349           0      2435.815918   1908.341309  -23472.22265    242.406769
    5350           0      2188.029297   2188.033936  -23472.22265    260.526794
    5351           0      1908.335693   2435.820313  -23472.22265    273.792175
    5352           0      1600.816650   2648.084473  -23472.22265    281.312500
    5353           0      1269.956543   2821.732910  -23472.22265    282.914246
    5354           0       920.578491   2954.234863  -23472.22265    279.687439
    5355           0       557.774963   3043.657959  -23472.22265    273.603851
    5356           0       186.834061   3088.698242  -23472.22265    266.642273
    5357           0      3088.698242    186.835541  -23096.66601    166.008881
    5358           0      3043.657227    557.779358  -23096.66601    129.343857
    5359           0      2954.232910    920.584839  -23096.66601    148.171494
    5360           0      2821.729980   1269.963623  -23096.66601    184.317856
    5361           0      2648.080566   1600.823608  -23096.66601    214.796494
    5362           0      2435.815918   1908.341309  -23096.66601    238.383179
    5363           0      2188.029297   2188.033936  -23096.66601    256.743805
    5364           0      1908.335693   2435.820313  -23096.66601    269.784973
    5365           0      1600.816650   2648.084473  -23096.66601    276.689911
    5366           0      1269.956543   2821.732910  -23096.66601    277.453766
    5367           0       920.578491   2954.234863  -23096.66601    273.398102
    5368           0       557.774963   3043.657959  -23096.66601    266.703400
    5369           0       186.834061   3088.698242  -23096.66601    259.479889
    5370           0      3088.698242    186.835526  -22721.11132    165.915924
    5371           0      3043.657227    557.779297  -22721.11132    123.440681
    5372           0      2954.232910    920.584717  -22721.11132    140.493790
    5373           0      2821.729980   1269.963501  -22721.11132    178.253754
    5374           0      2648.080566   1600.823486  -22721.11132    210.105713
    5375           0      2435.816162   1908.341309  -22721.11132    234.386932
    5376           0      2188.029541   2188.033691  -22721.11132    252.941315
    5377           0      1908.335693   2435.820313  -22721.11132    265.755585
    5378           0      1600.816650   2648.084473  -22721.11132    272.064636
    5379           0      1269.956543   2821.732910  -22721.11132    272.013641
    5380           0       920.578491   2954.234863  -22721.11132    267.150726
    5381           0       557.774963   3043.657959  -22721.11132    259.863983
    5382           0       186.834061   3088.698242  -22721.11132    252.392151
    5383           0      3088.698242    186.835510  -22345.55468    166.218933
    5384           0      3043.657227    557.779236  -22345.55468    118.162704
    5385           0      2954.232910    920.584656  -22345.55468    133.152206
    5386           0      2821.729980   1269.963379  -22345.55468    172.424286
    5387           0      2648.080566   1600.823486  -22345.55468    205.539291
    5388           0      2435.816162   1908.341309  -22345.55468    230.413162
    5389           0      2188.029541   2188.033691  -22345.55468    249.111008
    5390           0      1908.335693   2435.820313  -22345.55468    261.698456
    5391           0      1600.816650   2648.084473  -22345.55468    267.431366
    5392           0      1269.956543   2821.732910  -22345.55468    266.590088
    5393           0       920.578491   2954.234863  -22345.55468    260.944427
    5394           0       557.774963   3043.657959  -22345.55468    253.087372
    5395           0       186.834061   3088.698242  -22345.55468    245.381348
    5396           0      3088.698242    186.835480  -21970.00000    166.829208
    5397           0      3043.657227    557.779236  -21970.00000    113.492577
    5398           0      2954.232910    920.584595  -21970.00000    126.156105
    5399           0      2821.729980   1269.963379  -21970.00000    166.838104
    5400           0      2648.080566   1600.823364  -21970.00000    201.100159
    5401           0      2435.816162   1908.341309  -21970.00000    226.469055
    5402           0      2188.029541   2188.033691  -21970.00000    245.252243
    5403           0      1908.335693   2435.820313  -21970.00000    257.602570
    5404           0      1600.816650   2648.084473  -21970.00000    262.783081
    5405           0      1269.956543   2821.732910  -21970.00000    261.181274
    5406           0       920.578491   2954.234863  -21970.00000    254.778900
    5407           0       557.774902   3043.657959  -21970.00000    246.374603
    5408           0       186.833984   3088.698242  -21970.00000    238.447952
    5409           0      3088.698242    186.835480  -21594.44335    167.663712
    5410           0      3043.657227    557.779175  -21594.44335    109.403404
    5411           0      2954.232910    920.584534  -21594.44335    119.515747
    5412           0      2821.729980   1269.963379  -21594.44335    161.504700
    5413           0      2648.080566   1600.823364  -21594.44335    196.791504
    5414           0      2435.816162   1908.341064  -21594.44335    222.549774
    5415           0      2188.029541   2188.033691  -21594.44335    241.358841
    5416           0      1908.335693   2435.820313  -21594.44335    253.463303
    5417           0      1600.816650   2648.084473  -21594.44335    258.114136
    5418           0      1269.956543   2821.732910  -21594.44335    255.783234
    5419           0       920.578491   2954.234863  -21594.44335    248.653763
    5420           0       557.774780   3043.657959  -21594.44335    239.727890
    5421           0       186.833908   3088.698242  -21594.44335    231.597672
    5422           0      3088.698242    186.835449  -21218.88867    168.647278
    5423           0      3043.657227    557.779114  -21218.88867    105.860718
    5424           0      2954.232910    920.584473  -21218.88867    113.235947
    5425           0      2821.729980   1269.963257  -21218.88867    156.426834
    5426           0      2648.080566   1600.823364  -21218.88867    192.622162
    5427           0      2435.816162   1908.341064  -21218.88867    218.654846
    5428           0      2188.029541   2188.033691  -21218.88867    237.423157
    5429           0      1908.335693   2435.820313  -21218.88867    249.275284
    5430           0      1600.816650   2648.084473  -21218.88867    253.418381
    5431           0      1269.956543   2821.732910  -21218.88867    250.392197
    5432           0       920.578430   2954.234863  -21218.88867    242.569504
    5433           0       557.774780   3043.657959  -21218.88867    233.148117
    5434           0       186.833908   3088.698242  -21218.88867    224.831314
    5435           0      3088.698242    186.835434  -20843.33203    169.713287
    5436           0      3043.657227    557.779053  -20843.33203    102.820122
    5437           0      2954.232910    920.584412  -20843.33203    107.323318
    5438           0      2821.729980   1269.963135  -20843.33203    151.614548
    5439           0      2648.080566   1600.823242  -20843.33203    188.581497
    5440           0      2435.816406   1908.340942  -20843.33203    214.783203
    5441           0      2188.029541   2188.033691  -20843.33203    233.448059
    5442           0      1908.335693   2435.820313  -20843.33203    245.029526
    5443           0      1600.816650   2648.084473  -20843.33203    248.688461
    5444           0      1269.956543   2821.732910  -20843.33203    245.004501
    5445           0       920.578308   2954.234863  -20843.33203    236.525055
    5446           0       557.774719   3043.657959  -20843.33203    226.637207
    5447           0       186.833908   3088.698242  -20843.33203    218.148376
    5448           0      3088.698242    186.835419  -20467.77734    170.802887
    5449           0      3043.657227    557.779053  -20467.77734    100.231277
    5450           0      2954.232910    920.584351  -20467.77734    101.780357
    5451           0      2821.729980   1269.963135  -20467.77734    147.066849
    5452           0      2648.080811   1600.823242  -20467.77734    184.671356
    5453           0      2435.816406   1908.340942  -20467.77734    210.929108
    5454           0      2188.029541   2188.033691  -20467.77734    229.426605
    5455           0      1908.335693   2435.820313  -20467.77734    240.721893
    5456           0      1600.816650   2648.084473  -20467.77734    243.918686
    5457           0      1269.956543   2821.732910  -20467.77734    239.616714
    5458           0       920.578247   2954.234863  -20467.77734    230.519592
    5459           0       557.774658   3043.657959  -20467.77734    220.196777
    5460           0       186.833908   3088.698242  -20467.77734    211.554962
    5461           0      3088.698242    186.835388  -20092.22265    171.863037
    5462           0      3043.657227    557.778931  -20092.22265     98.038467
    5463           0      2954.232910    920.584351  -20092.22265     96.608879
    5464           0      2821.729980   1269.963135  -20092.22265    142.776321
    5465           0      2648.080811   1600.823242  -20092.22265    180.898636
    5466           0      2435.816406   1908.340942  -20092.22265    207.102692
    5467           0      2188.029541   2188.033691  -20092.22265    225.352737
    5468           0      1908.335693   2435.820313  -20092.22265    236.344254
    5469           0      1600.816650   2648.084473  -20092.22265    239.102844
    5470           0      1269.956543   2821.732910  -20092.22265    234.224274
    5471           0       920.578247   2954.234863  -20092.22265    224.552612
    5472           0       557.774658   3043.657959  -20092.22265    213.827637
    5473           0       186.833908   3088.698242  -20092.22265    205.052414
    5474           0      3088.698242    186.835388  -19716.66796    172.849701
    5475           0      3043.657227    557.778931  -19716.66796     96.181152
    5476           0      2954.232910    920.584229  -19716.66796     91.807831
    5477           0      2821.729980   1269.963013  -19716.66796    138.749695
    5478           0      2648.080811   1600.822998  -19716.66796    177.246170
    5479           0      2435.816406   1908.340942  -19716.66796    203.287247
    5480           0      2188.029541   2188.033691  -19716.66796    221.226349
    5481           0      1908.335693   2435.820313  -19716.66796    231.893143
    5482           0      1600.816650   2648.084473  -19716.66796    234.234558
    5483           0      1269.956543   2821.732910  -19716.66796    228.822433
    5484           0       920.578247   2954.234863  -19716.66796    218.621857
    5485           0       557.774658   3043.657959  -19716.66796    207.531677
    5486           0       186.833908   3088.698242  -19716.66796    198.643036
    5487           0      3088.698242    186.835358  -19341.11132    173.722992
    5488           0      3043.657227    557.778870  -19341.11132     94.597420
    5489           0      2954.232910    920.584167  -19341.11132     87.375526
    5490           0      2821.729980   1269.963013  -19341.11132    134.980209
    5491           0      2648.080811   1600.822998  -19341.11132    173.710266
    5492           0      2435.816406   1908.340942  -19341.11132    199.483780
    5493           0      2188.029541   2188.033691  -19341.11132    217.045258
    5494           0      1908.335693   2435.820313  -19341.11132    227.364502
    5495           0      1600.816650   2648.084473  -19341.11132    229.308395
    5496           0      1269.956543   2821.732910  -19341.11132    223.409363
    5497           0       920.578247   2954.234863  -19341.11132    212.728424
    5498           0       557.774658   3043.657959  -19341.11132    201.310760
    5499           0       186.833908   3088.698242  -19341.11132    192.329559
    5500           0      3088.698242    186.835358  -18965.55468    174.448380
    5501           0      3043.657227    557.778870  -18965.55468     93.226715
    5502           0      2954.232910    920.584106  -18965.55468     83.305298
    5503           0      2821.729980   1269.962891  -18965.55468    131.461777
    5504           0      2648.080811   1600.822998  -18965.55468    170.287155
    5505           0      2435.816406   1908.340942  -18965.55468    195.687057
    5506           0      2188.029785   2188.033691  -18965.55468    212.804611
    5507           0      1908.335815   2435.820313  -18965.55468    222.754135
    5508           0      1600.816650   2648.084473  -18965.55468    224.319885
    5509           0      1269.956543   2821.732910  -18965.55468    217.979004
    5510           0       920.578247   2954.234863  -18965.55468    206.869827
    5511           0       557.774658   3043.657959  -18965.55468    195.166016
    5512           0       186.833908   3088.698242  -18965.55468    186.114639
    5513           0      3088.698242    186.835327  -18589.99804    174.996521
    5514           0      3043.657227    557.778748  -18589.99804     92.009140
    5515           0      2954.232910    920.583984  -18589.99804     79.589775
    5516           0      2821.730225   1269.962891  -18589.99804    128.183167
    5517           0      2648.081055   1600.822998  -18589.99804    166.963623
    5518           0      2435.816406   1908.340820  -18589.99804    191.891876
    5519           0      2188.029785   2188.033447  -18589.99804    208.501312
    5520           0      1908.335938   2435.820068  -18589.99804    218.058792
    5521           0      1600.816650   2648.084473  -18589.99804    219.263580
    5522           0      1269.956543   2821.732910  -18589.99804    212.528351
    5523           0       920.578247   2954.234863  -18589.99804    201.045059
    5524           0       557.774597   3043.657959  -18589.99804    189.097504
    5525           0       186.833832   3088.698242  -18589.99804    179.999908
    5526           0      3088.698242    186.835297  -18214.44531    175.341919
    5527           0      3043.657227    557.778748  -18214.44531     90.887917
    5528           0      2954.232910    920.583984  -18214.44531     76.215630
    5529           0      2821.730225   1269.962769  -18214.44531    125.138695
    5530           0      2648.081055   1600.822998  -18214.44531    163.735062
    5531           0      2435.816406   1908.340820  -18214.44531    188.091049
    5532           0      2188.029785   2188.033447  -18214.44531    204.132355
    5533           0      1908.335938   2435.820068  -18214.44531    213.274918
    5534           0      1600.816650   2648.084473  -18214.44531    214.137985
    5535           0      1269.956421   2821.733154  -18214.44531    207.054138
    5536           0       920.578186   2954.234863  -18214.44531    195.253082
    5537           0       557.774536   3043.657959  -18214.44531    183.108749
    5538           0       186.833771   3088.698242  -18214.44531    173.987396
    5539           0      3088.698242    186.835297  -17838.88867    175.461609
    5540           0      3043.657227    557.778687  -17838.88867     89.807945
    5541           0      2954.232910    920.583923  -17838.88867     73.172012
    5542           0      2821.730225   1269.962646  -17838.88867    122.311714
    5543           0      2648.081055   1600.822754  -17838.88867    160.588943
    5544           0      2435.816406   1908.340576  -17838.88867    184.278793
    5545           0      2188.029785   2188.033447  -17838.88867    199.694229
    5546           0      1908.335938   2435.820068  -17838.88867    208.400574
    5547           0      1600.816650   2648.084473  -17838.88867    208.938248
    5548           0      1269.956299   2821.733154  -17838.88867    201.553360
    5549           0       920.578125   2954.234863  -17838.88867    189.492523
    5550           0       557.774536   3043.657959  -17838.88867    177.198364
    5551           0       186.833771   3088.698242  -17838.88867    168.078659
    5552           0      3088.698242    186.835266  -17463.33203    175.335754
    5553           0      3043.657227    557.778687  -17463.33203     88.722488
    5554           0      2954.232910    920.583862  -17463.33203     70.439880
    5555           0      2821.730225   1269.962646  -17463.33203    119.688828
    5556           0      2648.081055   1600.822632  -17463.33203    157.511139
    5557           0      2435.816406   1908.340576  -17463.33203    180.449966
    5558           0      2188.029785   2188.033447  -17463.33203    195.185669
    5559           0      1908.335938   2435.820068  -17463.33203    203.432693
    5560           0      1600.816650   2648.084473  -17463.33203    203.659653
    5561           0      1269.956299   2821.733154  -17463.33203    196.023926
    5562           0       920.578125   2954.234863  -17463.33203    183.762909
    5563           0       557.774536   3043.657959  -17463.33203    171.365448
    5564           0       186.833771   3088.698242  -17463.33203    162.274750
    5565           0      3088.698242    186.835251  -17087.77734    174.947754
    5566           0      3043.657227    557.778564  -17087.77734     87.587219
    5567           0      2954.232910    920.583862  -17087.77734     68.001419
    5568           0      2821.730225   1269.962524  -17087.77734    117.256042
    5569           0      2648.081055   1600.822632  -17087.77734    154.492630
    5570           0      2435.816406   1908.340576  -17087.77734    176.594894
    5571           0      2188.029785   2188.033447  -17087.77734    190.601624
    5572           0      1908.335938   2435.820068  -17087.77734    198.370956
    5573           0      1600.816650   2648.084473  -17087.77734    198.303543
    5574           0      1269.956299   2821.733154  -17087.77734    190.463913
    5575           0       920.578125   2954.234863  -17087.77734    178.063171
    5576           0       557.774536   3043.657959  -17087.77734    165.612991
    5577           0       186.833771   3088.698242  -17087.77734    156.576965
    5578           0      3088.698242    186.835220  -16712.22265    174.282318
    5579           0      3043.657227    557.778564  -16712.22265     86.361862
    5580           0      2954.232910    920.583740  -16712.22265     65.834869
    5581           0      2821.730225   1269.962524  -16712.22265    114.998863
    5582           0      2648.081055   1600.822632  -16712.22265    151.521347
    5583           0      2435.816406   1908.340576  -16712.22265    172.709747
    5584           0      2188.029785   2188.033447  -16712.22265    185.943283
    5585           0      1908.335938   2435.820068  -16712.22265    193.212860
    5586           0      1600.816650   2648.084717  -16712.22265    192.866516
    5587           0      1269.956299   2821.733398  -16712.22265    184.872452
    5588           0       920.578064   2954.234863  -16712.22265    172.392700
    5589           0       557.774475   3043.657959  -16712.22265    159.940201
    5590           0       186.833771   3088.698242  -16712.22265    150.985855
    5591           0      3088.698242    186.835205  -16336.66601    173.324402
    5592           0      3043.657227    557.778503  -16336.66601     85.013298
    5593           0      2954.232910    920.583679  -16336.66601     63.920757
    5594           0      2821.730225   1269.962402  -16336.66601    112.891281
    5595           0      2648.081055   1600.822632  -16336.66601    148.582367
    5596           0      2435.816650   1908.340576  -16336.66601    168.783356
    5597           0      2188.029785   2188.033447  -16336.66601    181.202072
    5598           0      1908.335938   2435.820068  -16336.66601    187.959152
    5599           0      1600.816650   2648.084717  -16336.66601    187.350067
    5600           0      1269.956299   2821.733398  -16336.66601    179.246490
    5601           0       920.578003   2954.234863  -16336.66601    166.750092
    5602           0       557.774353   3043.657959  -16336.66601    154.346863
    5603           0       186.833771   3088.698242  -16336.66601    145.501846
    5604           0      3088.698242    186.835175  -15961.11035    172.062195
    5605           0      3043.657227    557.778442  -15961.11035     83.511070
    5606           0      2954.232910    920.583618  -15961.11035     62.233009
    5607           0      2821.730469   1269.962402  -15961.11035    110.922646
    5608           0      2648.081055   1600.822510  -15961.11035    145.662628
    5609           0      2435.816650   1908.340576  -15961.11035    164.812408
    5610           0      2188.029785   2188.033447  -15961.11035    176.380905
    5611           0      1908.335938   2435.820068  -15961.11035    182.611099
    5612           0      1600.816650   2648.084717  -15961.11035    181.753433
    5613           0      1269.956299   2821.733398  -15961.11035    173.588715
    5614           0       920.578003   2954.234863  -15961.11035    161.136917
    5615           0       557.774353   3043.657959  -15961.11035    148.833633
    5616           0       186.833771   3088.698242  -15961.11035    140.126358
    5617           0      3088.698242    186.835175  -15585.55468    170.485580
    5618           0      3043.657227    557.778442  -15585.55468     81.827286
    5619           0      2954.232910    920.583557  -15585.55468     60.748821
    5620           0      2821.730469   1269.962402  -15585.55468    109.075867
    5621           0      2648.081055   1600.822510  -15585.55468    142.753723
    5622           0      2435.816650   1908.340576  -15585.55468    160.791916
    5623           0      2188.029785   2188.033447  -15585.55468    171.478760
    5624           0      1908.335938   2435.820068  -15585.55468    177.165512
    5625           0      1600.816650   2648.084717  -15585.55468    176.077438
    5626           0      1269.956177   2821.733398  -15585.55468    167.898987
    5627           0       920.577881   2954.234863  -15585.55468    155.551605
    5628           0       557.774353   3043.657959  -15585.55468    143.400528
    5629           0       186.833771   3088.698242  -15585.55468    134.858200
    5630           0      3088.698242    186.835144  -15209.99902    168.582825
    5631           0      3043.657227    557.778320  -15209.99902     79.941406
    5632           0      2954.232910    920.583496  -15209.99902     59.446903
    5633           0      2821.730469   1269.962158  -15209.99902    107.324310
    5634           0      2648.081299   1600.822388  -15209.99902    139.839325
    5635           0      2435.816895   1908.340576  -15209.99902    156.712158
    5636           0      2188.029785   2188.033447  -15209.99902    166.491470
    5637           0      1908.335938   2435.820068  -15209.99902    171.628189
    5638           0      1600.816650   2648.084717  -15209.99902    170.323364
    5639           0      1269.956055   2821.733398  -15209.99902    162.177933
    5640           0       920.577759   2954.234863  -15209.99902    149.995514
    5641           0       557.774292   3043.657959  -15209.99902    138.046066
    5642           0       186.833694   3088.698242  -15209.99902    129.697662
    5643           0      3088.698242    186.835129  -14834.44335    166.345062
    5644           0      3043.657227    557.778259  -14834.44335     77.834709
    5645           0      2954.232910    920.583374  -14834.44335     58.305668
    5646           0      2821.730469   1269.962158  -14834.44335    105.654129
    5647           0      2648.081299   1600.822266  -14834.44335    136.909058
    5648           0      2435.816895   1908.340576  -14834.44335    152.572052
    5649           0      2188.030029   2188.033447  -14834.44335    161.419205
    5650           0      1908.335938   2435.820068  -14834.44335    165.995697
    5651           0      1600.816650   2648.084717  -14834.44335    164.494980
    5652           0      1269.956055   2821.733398  -14834.44335    156.427658
    5653           0       920.577759   2954.234863  -14834.44335    144.468414
    5654           0       557.774170   3043.657959  -14834.44335    132.770584
    5655           0       186.833618   3088.698242  -14834.44335    124.643715
    5656           0      3088.698242    186.835114  -14458.88867    163.765228
    5657           0      3043.657227    557.778259  -14458.88867     75.491058
    5658           0      2954.232910    920.583374  -14458.88867     57.306087
    5659           0      2821.730469   1269.962158  -14458.88867    104.043831
    5660           0      2648.081299   1600.822266  -14458.88867    133.951935
    5661           0      2435.816895   1908.340332  -14458.88867    148.364853
    5662           0      2188.030029   2188.033203  -14458.88867    156.260422
    5663           0      1908.336182   2435.820068  -14458.88867    160.273819
    5664           0      1600.816650   2648.084717  -14458.88867    158.594543
    5665           0      1269.956055   2821.733398  -14458.88867    150.650467
    5666           0       920.577759   2954.234863  -14458.88867    138.971237
    5667           0       557.774170   3043.657959  -14458.88867    127.573387
    5668           0       186.833618   3088.698242  -14458.88867    119.695694
    5669           0      3088.698242    186.835083  -14083.33300    160.834625
    5670           0      3043.657227    557.778198  -14083.33300     72.900032
    5671           0      2954.232910    920.583374  -14083.33300     56.433517
    5672           0      2821.730469   1269.962036  -14083.33300    102.477722
    5673           0      2648.081299   1600.822266  -14083.33300    130.956772
    5674           0      2435.816895   1908.340332  -14083.33300    144.084656
    5675           0      2188.030029   2188.033203  -14083.33300    151.020462
    5676           0      1908.336182   2435.820068  -14083.33300    154.464951
    5677           0      1600.816650   2648.084717  -14083.33300    152.624634
    5678           0      1269.956055   2821.733398  -14083.33300    144.848724
    5679           0       920.577759   2954.234863  -14083.33300    133.505112
    5680           0       557.774170   3043.657959  -14083.33300    122.453857
    5681           0       186.833618   3088.698242  -14083.33300    114.852539
    5682           0      3088.698242    186.835083  -13707.77734    157.546951
    5683           0      3043.657227    557.778198  -13707.77734     70.053230
    5684           0      2954.232910    920.583252  -13707.77734     55.672543
    5685           0      2821.730469   1269.962036  -13707.77734    100.938583
    5686           0      2648.081299   1600.822144  -13707.77734    127.916016
    5687           0      2435.816895   1908.340210  -13707.77734    139.732544
    5688           0      2188.030029   2188.033203  -13707.77734    145.694672
    5689           0      1908.336182   2435.820068  -13707.77734    148.571106
    5690           0      1600.816650   2648.084717  -13707.77734    146.591202
    5691           0      1269.956055   2821.733398  -13707.77734    139.026077
    5692           0       920.577759   2954.234863  -13707.77734    128.070908
    5693           0       557.774170   3043.657959  -13707.77734    117.411499
    5694           0       186.833618   3088.698242  -13707.77734    110.113014
    5695           0      3088.698242    186.835052  -13332.22168    153.898224
    5696           0      3043.657227    557.778137  -13332.22168     66.945549
    5697           0      2954.232910    920.583252  -13332.22168     55.015633
    5698           0      2821.730469   1269.962036  -13332.22168     99.410210
    5699           0      2648.081299   1600.822144  -13332.22168    124.818146
    5700           0      2435.816895   1908.340210  -13332.22168    135.303009
    5701           0      2188.030029   2188.033203  -13332.22168    140.289444
    5702           0      1908.336182   2435.820068  -13332.22168    142.597839
    5703           0      1600.816650   2648.084717  -13332.22168    140.498123
    5704           0      1269.956055   2821.733398  -13332.22168    133.186249
    5705           0       920.577759   2954.234863  -13332.22168    122.669884
    5706           0       557.774109   3043.657959  -13332.22168    112.445435
    5707           0       186.833618   3088.698242  -13332.22168    105.476059
    5708           0      3088.698242    186.835052  -12956.66796    149.882690
    5709           0      3043.657227    557.778076  -12956.66796     63.578255
    5710           0      2954.232910    920.583191  -12956.66796     54.457630
    5711           0      2821.730469   1269.961914  -12956.66796     97.877449
    5712           0      2648.081543   1600.822021  -12956.66796    121.661507
    5713           0      2435.816895   1908.340210  -12956.66796    130.799576
    5714           0      2188.030029   2188.033203  -12956.66796    134.803253
    5715           0      1908.336182   2435.820068  -12956.66796    136.547531
    5716           0      1600.816650   2648.084717  -12956.66796    134.351028
    5717           0      1269.956055   2821.733398  -12956.66796    127.332649
    5718           0       920.577637   2954.234863  -12956.66796    117.302895
    5719           0       557.774048   3043.657959  -12956.66796    107.554718
    5720           0       186.833618   3088.698242  -12956.66796    100.940094
    5721           0      3088.698242    186.835022  -12581.11328    145.497955
    5722           0      3043.657227    557.778015  -12581.11328     59.958813
    5723           0      2954.232910    920.583069  -12581.11328     53.998451
    5724           0      2821.730469   1269.961914  -12581.11328     96.329781
    5725           0      2648.081543   1600.822021  -12581.11328    118.435928
    5726           0      2435.816895   1908.340210  -12581.11328    126.222733
    5727           0      2188.030029   2188.033203  -12581.11328    129.243103
    5728           0      1908.336182   2435.820068  -12581.11328    130.427750
    5729           0      1600.816650   2648.084717  -12581.11328    128.156250
    5730           0      1269.956055   2821.733398  -12581.11328    121.470741
    5731           0       920.577637   2954.234863  -12581.11328    111.972443
    5732           0       557.774048   3043.657959  -12581.11328    102.739433
    5733           0       186.833618   3088.698242  -12581.11328     96.505676
    5734           0      3088.698242    186.834991  -12205.55566    140.749283
    5735           0      3043.657227    557.777954  -12205.55566     56.096878
    5736           0      2954.233154    920.583008  -12205.55566     53.635464
    5737           0      2821.730713   1269.961914  -12205.55566     94.759224
    5738           0      2648.081543   1600.822021  -12205.55566    115.139603
    5739           0      2435.816895   1908.340210  -12205.55566    121.569870
    5740           0      2188.030029   2188.033203  -12205.55566    123.613434
    5741           0      1908.336182   2435.820068  -12205.55566    124.244324
    5742           0      1600.816650   2648.084717  -12205.55566    121.919403
    5743           0      1269.955933   2821.733398  -12205.55566    115.604599
    5744           0       920.577515   2954.234863  -12205.55566    106.679604
    5745           0       557.774048   3043.657959  -12205.55566     97.999199
    5746           0       186.833618   3088.698242  -12205.55566     92.171272
    5747           0      3088.698242    186.834991  -11830.00000    135.636871
    5748           0      3043.657227    557.777893  -11830.00000     52.016701
    5749           0      2954.233154    920.582947  -11830.00000     53.383228
    5750           0      2821.730713   1269.961670  -11830.00000     93.151558
    5751           0      2648.081543   1600.822021  -11830.00000    111.774391
    5752           0      2435.816895   1908.340210  -11830.00000    116.849907
    5753           0      2188.030029   2188.033203  -11830.00000    117.917839
    5754           0      1908.336182   2435.820068  -11830.00000    118.002983
    5755           0      1600.816650   2648.084717  -11830.00000    115.647919
    5756           0      1269.955933   2821.733398  -11830.00000    109.738411
    5757           0       920.577515   2954.234863  -11830.00000    101.425934
    5758           0       557.773987   3043.658203  -11830.00000     93.334084
    5759           0       186.833557   3088.698486  -11830.00000     87.936653
    5760           0      3088.698242    186.834961  -11454.44335    130.168152
    5761           0      3043.657227    557.777893  -11454.44335     47.757580
    5762           0      2954.233154    920.582886  -11454.44335     53.250259
    5763           0      2821.730713   1269.961670  -11454.44335     91.507660
    5764           0      2648.081543   1600.821777  -11454.44335    108.333473
    5765           0      2435.816895   1908.340088  -11454.44335    112.065628
    5766           0      2188.030273   2188.033203  -11454.44335    112.165421
    5767           0      1908.336182   2435.820068  -11454.44335    111.711777
    5768           0      1600.816650   2648.084717  -11454.44335    109.347740
    5769           0      1269.955933   2821.733398  -11454.44335    103.876205
    5770           0       920.577515   2954.234863  -11454.44335     96.213097
    5771           0       557.773926   3043.658203  -11454.44335     88.743690
    5772           0       186.833481   3088.698730  -11454.44335     83.801849
    5773           0      3088.698242    186.834961  -11078.88867    124.358574
    5774           0      3043.657227    557.777832  -11078.88867     43.377136
    5775           0      2954.233154    920.582886  -11078.88867     53.249111
    5776           0      2821.730713   1269.961670  -11078.88867     89.823479
    5777           0      2648.081543   1600.821777  -11078.88867    104.826752
    5778           0      2435.816895   1908.340088  -11078.88867    107.224037
    5779           0      2188.030273   2188.033203  -11078.88867    106.361374
    5780           0      1908.336182   2435.820068  -11078.88867    105.377769
    5781           0      1600.816650   2648.084717  -11078.88867    103.026138
    5782           0      1269.955933   2821.733398  -11078.88867     98.022804
    5783           0       920.577515   2954.234863  -11078.88867     91.042702
    5784           0       557.773926   3043.658203  -11078.88867     84.229095
    5785           0       186.833481   3088.698730  -11078.88867     79.767120
    5786           0      3088.698242    186.834930  -10703.33300    118.229347
    5787           0      3043.657227    557.777832  -10703.33300     38.971764
    5788           0      2954.233398    920.582825  -10703.33300     53.399521
    5789           0      2821.730957   1269.961548  -10703.33300     88.100464
    5790           0      2648.081543   1600.821655  -10703.33300    101.255463
    5791           0      2435.816895   1908.339844  -10703.33300    102.332100
    5792           0      2188.030273   2188.033203  -10703.33300    100.517914
    5793           0      1908.336182   2435.820068  -10703.33300     99.010849
    5794           0      1600.816650   2648.084717  -10703.33300     96.688858
    5795           0      1269.955933   2821.733398  -10703.33300     92.181931
    5796           0       920.577515   2954.234863  -10703.33300     85.917297
    5797           0       557.773926   3043.658203  -10703.33300     79.790894
    5798           0       186.833481   3088.698730  -10703.33300     75.833771
    5799           0      3088.698242    186.834900  -10327.77734    111.813583
    5800           0      3043.657227    557.777710  -10327.77734     34.696613
    5801           0      2954.233398    920.582764  -10327.77734     53.721279
    5802           0      2821.730957   1269.961548  -10327.77734     86.342682
    5803           0      2648.081543   1600.821655  -10327.77734     97.629387
    5804           0      2435.816895   1908.339844  -10327.77734     97.400803
    5805           0      2188.030273   2188.033203  -10327.77734     94.643631
    5806           0      1908.336182   2435.819824  -10327.77734     92.619293
    5807           0      1600.816650   2648.084717  -10327.77734     90.343163
    5808           0      1269.955933   2821.733398  -10327.77734     86.357620
    5809           0       920.577515   2954.234863  -10327.77734     80.838875
    5810           0       557.773926   3043.658203  -10327.77734     75.430931
    5811           0       186.833481   3088.698730  -10327.77734     72.003632
    5812           0      3088.698242    186.834900  -9952.220703    105.160927
    5813           0      3043.657227    557.777649  -9952.220703     30.802366
    5814           0      2954.233398    920.582703  -9952.220703     54.236950
    5815           0      2821.730957   1269.961426  -9952.220703     84.558823
    5816           0      2648.081787   1600.821655  -9952.220703     93.955795
    5817           0      2435.817139   1908.339844  -9952.220703     92.444313
    5818           0      2188.030273   2188.033203  -9952.220703     88.750381
    5819           0      1908.336182   2435.819824  -9952.220703     86.211891
    5820           0      1600.816650   2648.084717  -9952.220703     83.996109
    5821           0      1269.955933   2821.733398  -9952.220703     80.554459
    5822           0       920.577515   2954.234863  -9952.220703     75.810074
    5823           0       557.773926   3043.658203  -9952.220703     71.152176
    5824           0       186.833481   3088.698730  -9952.220703     68.279366
    5825           0      3088.698242    186.834869  -9576.666016     98.342117
    5826           0      3043.657227    557.777649  -9576.666016     27.679962
    5827           0      2954.233398    920.582581  -9576.666016     54.969612
    5828           0      2821.730957   1269.961426  -9576.666016     82.759567
    5829           0      2648.081787   1600.821655  -9576.666016     90.248428
    5830           0      2435.817139   1908.339844  -9576.666016     87.472336
    5831           0      2188.030273   2188.033203  -9576.666016     82.852081
    5832           0      1908.336182   2435.819824  -9576.666016     79.800522
    5833           0      1600.816650   2648.084717  -9576.666016     77.652046
    5834           0      1269.955811   2821.733398  -9576.666016     74.774910
    5835           0       920.577393   2954.234863  -9576.666016     70.834015
    5836           0       557.773926   3043.658203  -9576.666016     66.957245
    5837           0       186.833481   3088.698730  -9576.666016     64.664413
    5838           0      3088.698242    186.834869  -9201.111328     91.462166
    5839           0      3043.657227    557.777588  -9201.111328     25.865835
    5840           0      2954.233398    920.582581  -9201.111328     55.941093
    5841           0      2821.730957   1269.961426  -9201.111328     80.960991
    5842           0      2648.081787   1600.821533  -9201.111328     86.518982
    5843           0      2435.817383   1908.339844  -9201.111328     82.504318
    5844           0      2188.030273   2188.033203  -9201.111328     76.966217
    5845           0      1908.336182   2435.819824  -9201.111328     73.394020
    5846           0      1600.816650   2648.084717  -9201.111328     71.316902
    5847           0      1269.955811   2821.733398  -9201.111328     69.023315
    5848           0       920.577271   2954.234863  -9201.111328     65.914879
    5849           0       557.773865   3043.658203  -9201.111328     62.851196
    5850           0       186.833481   3088.698730  -9201.111328     61.163612
    5851           0      3088.698242    186.834839  -8825.555664     84.671654
    5852           0      3043.657227    557.777588  -8825.555664     25.897171
    5853           0      2954.233398    920.582520  -8825.555664     57.172329
    5854           0      2821.730957   1269.961426  -8825.555664     79.180840
    5855           0      2648.081787   1600.821533  -8825.555664     82.785172
    5856           0      2435.817383   1908.339722  -8825.555664     77.556343
    5857           0      2188.030273   2188.032959  -8825.555664     71.110695
    5858           0      1908.336182   2435.819824  -8825.555664     67.005562
    5859           0      1600.816650   2648.084717  -8825.555664     64.995392
    5860           0      1269.955811   2821.733398  -8825.555664     63.302765
    5861           0       920.577271   2954.234863  -8825.555664     61.057907
    5862           0       557.773804   3043.658203  -8825.555664     58.840218
    5863           0       186.833481   3088.698730  -8825.555664     57.783260
    5864           0      3088.698242    186.834824  -8450.000977     78.187576
    5865           0      3043.657227    557.777527  -8450.000977     28.008036
    5866           0      2954.233398    920.582397  -8450.000977     58.679855
    5867           0      2821.730957   1269.961182  -8450.000977     77.439468
    5868           0      2648.081787   1600.821533  -8450.000977     79.063927
    5869           0      2435.817383   1908.339722  -8450.000977     72.647720
    5870           0      2188.030273   2188.032959  -8450.000977     65.306946
    5871           0      1908.336182   2435.820068  -8450.000977     60.648689
    5872           0      1600.816650   2648.084717  -8450.000977     58.692604
    5873           0      1269.955811   2821.733398  -8450.000977     57.617699
    5874           0       920.577271   2954.234863  -8450.000977     56.270107
    5875           0       557.773682   3043.658203  -8450.000977     54.932407
    5876           0       186.833405   3088.698730  -8450.000977     54.531353
    5877           0      3088.698242    186.834808  -8074.445313     72.316360
    5878           0      3043.657227    557.777466  -8074.445313     31.994644
    5879           0      2954.233398    920.582397  -8074.445313     60.477482
    5880           0      2821.730957   1269.961182  -8074.445313     75.759850
    5881           0      2648.081787   1600.821289  -8074.445313     75.374008
    5882           0      2435.817383   1908.339600  -8074.445313     67.805344
    5883           0      2188.030273   2188.032959  -8074.445313     59.583328
    5884           0      1908.336060   2435.820068  -8074.445313     54.337627
    5885           0      1600.816406   2648.084961  -8074.445313     52.412289
    5886           0      1269.955811   2821.733398  -8074.445313     51.972324
    5887           0       920.577271   2954.234863  -8074.445313     51.560394
    5888           0       557.773621   3043.658203  -8074.445313     51.138206
    5889           0       186.833328   3088.698730  -8074.445313     51.417377
    5890           0      3088.698242    186.834778  -7698.889160     67.472366
    5891           0      3043.657227    557.777344  -7698.889160     37.434120
    5892           0      2954.233398    920.582275  -7698.889160     62.569859
    5893           0      2821.730957   1269.961182  -7698.889160     74.166702
    5894           0      2648.081787   1600.821289  -7698.889160     71.732353
    5895           0      2435.817383   1908.339600  -7698.889160     63.052898
    5896           0      2188.030273   2188.032959  -7698.889160     53.972713
    5897           0      1908.336060   2435.820068  -7698.889160     48.093510
    5898           0      1600.816406   2648.084961  -7698.889160     46.158085
    5899           0      1269.955811   2821.733398  -7698.889160     46.372894
    5900           0       920.577271   2954.234863  -7698.889160     46.940838
    5901           0       557.773621   3043.658203  -7698.889160     47.471436
    5902           0       186.833328   3088.698730  -7698.889160     48.452953
    5903           0      3088.698242    186.834778  -7323.333496     64.167450
    5904           0      3043.657227    557.777344  -7323.333496     43.929665
    5905           0      2954.233398    920.582275  -7323.333496     64.957870
    5906           0      2821.730957   1269.961060  -7323.333496     72.678688
    5907           0      2648.082031   1600.821289  -7323.333496     68.161255
    5908           0      2435.817383   1908.339600  -7323.333496     58.422432
    5909           0      2188.030273   2188.032959  -7323.333496     48.521172
    5910           0      1908.336060   2435.820068  -7323.333496     41.942173
    5911           0      1600.816406   2648.084961  -7323.333496     39.934139
    5912           0      1269.955811   2821.733398  -7323.333496     40.827343
    5913           0       920.577271   2954.234863  -7323.333496     42.428703
    5914           0       557.773621   3043.658203  -7323.333496     43.949501
    5915           0       186.833328   3088.698730  -7323.333496     45.652283
    5916           0      3088.698242    186.834747  -6947.777832     62.936848
    5917           0      3043.657227    557.777344  -6947.777832     51.194401
    5918           0      2954.233398    920.582275  -6947.777832     67.634750
    5919           0      2821.730957   1269.960938  -6947.777832     71.316864
    5920           0      2648.082031   1600.821289  -6947.777832     64.679176
    5921           0      2435.817383   1908.339600  -6947.777832     53.953213
    5922           0      2188.030273   2188.032959  -6947.777832     43.287289
    5923           0      1908.336060   2435.820068  -6947.777832     35.925301
    5924           0      1600.816406   2648.084961  -6947.777832     33.745327
    5925           0      1269.955811   2821.733398  -6947.777832     35.347904
    5926           0       920.577271   2954.234863  -6947.777832     38.047852
    5927           0       557.773621   3043.658203  -6947.777832     40.595043
    5928           0       186.833328   3088.698730  -6947.777832     43.032162
    5929           0      3088.698242    186.834732  -6572.222656     64.192215
    5930           0      3043.657227    557.777283  -6572.222656     59.032124
    5931           0      2954.233398    920.582092  -6572.222656     70.586243
    5932           0      2821.730957   1269.960938  -6572.222656     70.095383
    5933           0      2648.082031   1600.821167  -6572.222656     61.302654
    5934           0      2435.817383   1908.339478  -6572.222656     49.686817
    5935           0      2188.030273   2188.032959  -6572.222656     38.358757
    5936           0      1908.336060   2435.820068  -6572.222656     30.111099
    5937           0      1600.816406   2648.084961  -6572.222656     27.599108
    5938           0      1269.955688   2821.733398  -6572.222656     29.954308
    5939           0       920.577148   2954.234863  -6572.222656     33.833317
    5940           0       557.773621   3043.658203  -6572.222656     37.436977
    5941           0       186.833328   3088.698730  -6572.222656     40.612152
    5942           0      3088.698242    186.834717  -6196.666992     68.066422
    5943           0      3043.657227    557.777222  -6196.666992     67.311752
    5944           0      2954.233398    920.582092  -6196.666992     73.788597
    5945           0      2821.730957   1269.960938  -6196.666992     69.024704
    5946           0      2648.082031   1600.821167  -6196.666992     58.049633
    5947           0      2435.817383   1908.339478  -6196.666992     45.678356
    5948           0      2188.030273   2188.032715  -6196.666992     33.858276
    5949           0      1908.336182   2435.819824  -6196.666992     24.626810
    5950           0      1600.816406   2648.084961  -6196.666992     21.508678
    5951           0      1269.955688   2821.733398  -6196.666992     24.682173
    5952           0       920.577148   2954.234863  -6196.666992     29.836580
    5953           0       557.773621   3043.658203  -6196.666992     34.512119
    5954           0       186.833328   3088.698730  -6196.666992     38.414337
    5955           0      3088.698242    186.834686  -5821.111328     74.396698
    5956           0      3043.657227    557.777161  -5821.111328     75.931343
    5957           0      2954.233398    920.582031  -5821.111328     77.214493
    5958           0      2821.730957   1269.960938  -5821.111328     68.105438
    5959           0      2648.082031   1600.821045  -5821.111328     54.935680
    5960           0      2435.817383   1908.339355  -5821.111328     41.992081
    5961           0      2188.030518   2188.032715  -5821.111328     29.966162
    5962           0      1908.336182   2435.819824  -5821.111328     19.724190
    5963           0      1600.816406   2648.084961  -5821.111328     15.508262
    5964           0      1269.955688   2821.733398  -5821.111328     19.601099
    5965           0       920.577026   2954.234863  -5821.111328     26.136547
    5966           0       557.773560   3043.658203  -5821.111328     31.866110
    5967           0       186.833328   3088.698730  -5821.111328     36.463047
    5968           0      3088.698242    186.834686  -5445.555664     82.821480
    5969           0      3043.657227    557.777100  -5445.555664     84.820206
    5970           0      2954.233398    920.581909  -5445.555664     80.825134
    5971           0      2821.730957   1269.960693  -5445.555664     67.336060
    5972           0      2648.082031   1600.821045  -5445.555664     51.974823
    5973           0      2435.817383   1908.339355  -5445.555664     38.706783
    5974           0      2188.030518   2188.032715  -5445.555664     26.927488
    5975           0      1908.336182   2435.819824  -5445.555664     15.917867
    5976           0      1600.816406   2648.084961  -5445.555664      9.707824
    5977           0      1269.955566   2821.733398  -5445.555664     14.870726
    5978           0       920.577026   2954.234863  -5445.555664     22.851145
    5979           0       557.773499   3043.658203  -5445.555664     29.554873
    5980           0       186.833328   3088.698730  -5445.555664     34.783226
    5981           0      3088.698242    186.834656  -5070.000000     92.949669
    5982           0      3043.657227    557.777100  -5070.000000     93.904366
    5983           0      2954.233398    920.581909  -5070.000000     84.584251
    5984           0      2821.730957   1269.960693  -5070.000000     66.702957
    5985           0      2648.082031   1600.821045  -5070.000000     49.181103
    5986           0      2435.817383   1908.339355  -5070.000000     35.914398
    5987           0      2188.030762   2188.032715  -5070.000000     25.032549
    5988           0      1908.336182   2435.819824  -5070.000000     14.086188
    5989           0      1600.816406   2648.084961  -5070.000000      4.770148
    5990           0      1269.955566   2821.733398  -5070.000000     10.899354
    5991           0       920.577026   2954.234863  -5070.000000     20.155369
    5992           0       557.773438   3043.658203  -5070.000000     27.641068
    5993           0       186.833252   3088.698730  -5070.000000     33.399639
    5994           0      3088.698242    186.834656  -4694.444824    104.400269
    5995           0      3043.657227    557.777039  -4694.444824    103.133606
    5996           0      2954.233398    920.581909  -4694.444824     88.444595
    5997           0      2821.730957   1269.960693  -4694.444824     66.194214
    5998           0      2648.082031   1600.820801  -4694.444824     46.563316
    5999           0      2435.817627   1908.339355  -4694.444824     33.716595
    6000           0      2188.030762   2188.032715  -4694.444824     24.524565
    6001           0      1908.336182   2435.819824  -4694.444824     14.936586
    6002           0      1600.816406   2648.084961  -4694.444824      4.987231
    6003           0      1269.955566   2821.733398  -4694.444824      8.716088
    6004           0       920.577026   2954.234863  -4694.444824     18.277336
    6005           0       557.773315   3043.658203  -4694.444824     26.190481
    6006           0       186.833191   3088.698730  -4694.444824     32.333401
    6007           0      3088.698242    186.834625  -4318.889160    116.899956
    6008           0      3043.657471    557.776978  -4318.889160    112.437820
    6009           0      2954.233398    920.581787  -4318.889160     92.368980
    6010           0      2821.730957   1269.960693  -4318.889160     65.789886
    6011           0      2648.082031   1600.820801  -4318.889160     44.134491
    6012           0      2435.817627   1908.339355  -4318.889160     32.211578
    6013           0      2188.030762   2188.032715  -4318.889160     25.463051
    6014           0      1908.336182   2435.819824  -4318.889160     18.066479
    6015           0      1600.816406   2648.084961  -4318.889160      9.970280
    6016           0      1269.955444   2821.733398  -4318.889160      9.558848
    6017           0       920.576904   2954.234863  -4318.889160     17.447445
    6018           0       557.773315   3043.658203  -4318.889160     25.260260
    6019           0       186.833191   3088.698730  -4318.889160     31.599957
    6020           0      3088.698242    186.834595  -3943.333740    130.166168
    6021           0      3043.657471    557.776978  -3943.333740    121.773857
    6022           0      2954.233643    920.581787  -3943.333740     96.310555
    6023           0      2821.731201   1269.960571  -3943.333740     65.476822
    6024           0      2648.082031   1600.820679  -3943.333740     41.901619
    6025           0      2435.817627   1908.339355  -3943.333740     31.473650
    6026           0      2188.030762   2188.032715  -3943.333740     27.684258
    6027           0      1908.336182   2435.819824  -3943.333740     22.520151
    6028           0      1600.816406   2648.084961  -3943.333740     15.658064
    6029           0      1269.955322   2821.733398  -3943.333740     12.793727
    6030           0       920.576782   2954.235107  -3943.333740     17.777113
    6031           0       557.773315   3043.658203  -3943.333740     24.885883
    6032           0       186.833191   3088.698730  -3943.333740     31.206390
    6033           0      3088.698242    186.834595  -3567.778076    144.058029
    6034           0      3043.657471    557.776855  -3567.778076    131.076874
    6035           0      2954.233643    920.581604  -3567.778076    100.250008
    6036           0      2821.731445   1269.960449  -3567.778076     65.231796
    6037           0      2648.082275   1600.820679  -3567.778076     39.875557
    6038           0      2435.817627   1908.339111  -3567.778076     31.537102
    6039           0      2188.030762   2188.032715  -3567.778076     30.891150
    6040           0      1908.336182   2435.819824  -3567.778076     27.649218
    6041           0      1600.816406   2648.084961  -3567.778076     21.467295
    6042           0      1269.955322   2821.733398  -3567.778076     17.075481
    6043           0       920.576782   2954.235107  -3567.778076     19.173231
    6044           0       557.773315   3043.658203  -3567.778076     25.069500
    6045           0       186.833191   3088.698730  -3567.778076     31.148901
    6046           0      3088.698242    186.834564  -3192.221436    158.325928
    6047           0      3043.657715    557.776855  -3192.221436    140.305313
    6048           0      2954.233643    920.581604  -3192.221436    104.142166
    6049           0      2821.731445   1269.960449  -3192.221436     65.046234
    6050           0      2648.082275   1600.820679  -3192.221436     38.061264
    6051           0      2435.817627   1908.339111  -3192.221436     32.373302
    6052           0      2188.030762   2188.032715  -3192.221436     34.806946
    6053           0      1908.336182   2435.819824  -3192.221436     33.123890
    6054           0      1600.816406   2648.084961  -3192.221436     27.300573
    6055           0      1269.955322   2821.733398  -3192.221436     21.762123
    6056           0       920.576782   2954.235107  -3192.221436     21.397905
    6057           0       557.773315   3043.658203  -3192.221436     25.776901
    6058           0       186.833191   3088.698730  -3192.221436     31.413254
    6059           0      3088.698486    186.834564  -2816.665771    172.912552
    6060           0      3043.657715    557.776855  -2816.665771    149.426056
    6061           0      2954.233643    920.581543  -2816.665771    108.015419
    6062           0      2821.731445   1269.960449  -2816.665771     64.903824
    6063           0      2648.082275   1600.820679  -2816.665771     36.472698
    6064           0      2435.817627   1908.339111  -2816.665771     33.906322
    6065           0      2188.030762   2188.032715  -2816.665771     39.189827
    6066           0      1908.336182   2435.819824  -2816.665771     38.780975
    6067           0      1600.816406   2648.084961  -2816.665771     33.117531
    6068           0      1269.955322   2821.733398  -2816.665771     26.616259
    6069           0       920.576782   2954.235107  -2816.665771     24.197208
    6070           0       557.773315   3043.658203  -2816.665771     26.947407
    6071           0       186.833191   3088.698730  -2816.665771     31.976398
    6072           0      3088.698486    186.834534  -2441.111328    187.640106
    6073           0      3043.657715    557.776733  -2441.111328    158.424622
    6074           0      2954.233643    920.581421  -2441.111328    111.800369
    6075           0      2821.731445   1269.960327  -2441.111328     64.766624
    6076           0      2648.082275   1600.820557  -2441.111328     35.101856
    6077           0      2435.817627   1908.339111  -2441.111328     36.054161
    6078           0      2188.030762   2188.032715  -2441.111328     43.940681
    6079           0      1908.336182   2435.819824  -2441.111328     44.565727
    6080           0      1600.816406   2648.084961  -2441.111328     38.931942
    6081           0      1269.955322   2821.733398  -2441.111328     31.540188
    6082           0       920.576782   2954.235107  -2441.111328     27.369551
    6083           0       557.773315   3043.658203  -2441.111328     28.498634
    6084           0       186.833191   3088.698730  -2441.111328     32.804241
    6085           0      3088.698486    186.834503  -2065.554932    202.203262
    6086           0      3043.657715    557.776672  -2065.554932    167.210754
    6087           0      2954.233643    920.581421  -2065.554932    115.578110
    6088           0      2821.731445   1269.960205  -2065.554932     64.688965
    6089           0      2648.082520   1600.820557  -2065.554932     33.991505
    6090           0      2435.817627   1908.339111  -2065.554932     38.611279
    6091           0      2188.030762   2188.032471  -2065.554932     48.802597
    6092           0      1908.336304   2435.819824  -2065.554932     50.322262
    6093           0      1600.816406   2648.084961  -2065.554932     44.655045
    6094           0      1269.955322   2821.733398  -2065.554932     36.462189
    6095           0       920.576782   2954.235107  -2065.554932     30.779215
    6096           0       557.773315   3043.658203  -2065.554932     30.369097
    6097           0       186.833191   3088.698730  -2065.554932     33.875660
    6098           0      3088.698486    186.834503  -1689.998413    217.527130
    6099           0      3043.657715    557.776672  -1689.998413    176.282303
    6100           0      2954.233643    920.581421  -1689.998413    119.319138
    6101           0      2821.731445   1269.960205  -1689.998413     64.498520
    6102           0      2648.082520   1600.820313  -1689.998413     33.095623
    6103           0      2435.817871   1908.338989  -1689.998413     41.792084
    6104           0      2188.030762   2188.032471  -1689.998413     54.136143
    6105           0      1908.336304   2435.819824  -1689.998413     56.371922
    6106           0      1600.816406   2648.084961  -1689.998413     50.538448
    6107           0      1269.955322   2821.733398  -1689.998413     41.467552
    6108           0       920.576721   2954.235107  -1689.998413     34.354382
    6109           0       557.773193   3043.658203  -1689.998413     32.451866
    6110           0       186.833130   3088.698730  -1689.998413     35.119118
    6111           0      3088.698486    186.834473  -1314.443848    230.480972
    6112           0      3043.657715    557.776611  -1314.443848    184.027893
    6113           0      2954.233643    920.581299  -1314.443848    122.653297
    6114           0      2821.731445   1269.960083  -1314.443848     64.466888
    6115           0      2648.082520   1600.820313  -1314.443848     32.488667
    6116           0      2435.817871   1908.338989  -1314.443848     44.655338
    6117           0      2188.030762   2188.032471  -1314.443848     58.779922
    6118           0      1908.336304   2435.819824  -1314.443848     61.739841
    6119           0      1600.816406   2648.084961  -1314.443848     55.856441
    6120           0      1269.955322   2821.733398  -1314.443848     46.171898
    6121           0       920.576599   2954.235107  -1314.443848     37.923111
    6122           0       557.773071   3043.658203  -1314.443848     34.744808
    6123           0       186.833054   3088.698730  -1314.443848     36.578667
    6124           0      3088.698486    186.834473   -938.888367    248.770187
    6125           0      3043.657715    557.776611   -938.888367    194.772751
    6126           0      2954.233643    920.581299   -938.888367    126.950127
    6127           0      2821.731445   1269.959961   -938.888367     64.315918
    6128           0      2648.082520   1600.820313   -938.888367     32.099110
    6129           0      2435.817871   1908.338867   -938.888367     49.102623
    6130           0      2188.030762   2188.032471   -938.888367     65.242966
    6131           0      1908.336304   2435.819824   -938.888367     68.684631
    6132           0      1600.816406   2648.084961   -938.888367     62.375076
    6133           0      1269.955322   2821.733398   -938.888367     51.578392
    6134           0       920.576538   2954.235107   -938.888367     41.847176
    6135           0       557.773071   3043.658203   -938.888367     37.175236
    6136           0       186.833054   3088.698730   -938.888367     38.106293
    6137           0      3088.698486    186.834442   -563.331787    259.308777
    6138           0      3043.657715    557.776550   -563.331787    200.637085
    6139           0      2954.233643    920.581238   -563.331787    129.817551
    6140           0      2821.731445   1269.959961   -563.331787     64.487381
    6141           0      2648.082520   1600.820313   -563.331787     32.116768
    6142           0      2435.817871   1908.338867   -563.331787     51.672165
    6143           0      2188.030762   2188.032471   -563.331787     69.132965
    6144           0      1908.336304   2435.819824   -563.331787     73.192978
    6145           0      1600.816406   2648.084961   -563.331787     66.941833
    6146           0      1269.955322   2821.733398   -563.331787     55.772987
    6147           0       920.576538   2954.235107   -563.331787     45.277603
    6148           0       557.773071   3043.658203   -563.331787     39.643810
    6149           0       186.833054   3088.698730   -563.331787     39.805096
    6150           0      3088.698486    186.834427   -187.777267    265.394470
    6151           0      3043.657715    557.776489   -187.777267    201.652756
    6152           0      2954.233887    920.581116   -187.777267    127.749260
    6153           0      2821.731445   1269.959961   -187.777267     60.997578
    6154           0      2648.082520   1600.820190   -187.777267     31.096842
    6155           0      2435.817871   1908.338867   -187.777267     54.585617
    6156           0      2188.030762   2188.032471   -187.777267     72.918518
    6157           0      1908.336304   2435.819824   -187.777267     77.161377
    6158           0      1600.816406   2648.084961   -187.777267     70.685890
    6159           0      1269.955322   2821.733398   -187.777267     59.004848
    6160           0       920.576538   2954.235107   -187.777267     47.778538
    6161           0       557.773071   3043.658203   -187.777267     41.362514
    6162           0       186.833054   3088.698730   -187.777267     41.020908
    6163           0      -186.835388   3088.698242  -33612.22265    452.476257
    6164           0      -557.778870   3043.657227  -33612.22265    430.952240
    6165           0      -920.584045   2954.232910  -33612.22265    399.031860
    6166           0     -1269.962769   2821.730225  -33612.22265    359.739136
    6167           0     -1600.822876   2648.081055  -33612.22265    317.482330
    6168           0     -1908.340820   2435.816406  -33612.22265    277.805084
    6169           0     -2188.033447   2188.029785  -33612.22265    246.458694
    6170           0     -2435.820068   1908.335938  -33612.22265    228.082214
    6171           0     -2648.084961   1600.816406  -33612.22265    225.128189
    6172           0     -2821.733643   1269.955078  -33612.22265    237.449387
    6173           0     -2954.235107    920.576782  -33612.22265    261.800018
    6174           0     -3043.657959    557.774109  -33612.22265    291.302460
    6175           0     -3088.698730    186.833649  -33612.22265    313.848785
    6176           0      -186.836182   3088.698242  -33236.66796    463.126740
    6177           0      -557.781006   3043.656738  -33236.66796    441.285156
    6178           0      -920.586792   2954.231934  -33236.66796    409.041840
    6179           0     -1269.965332   2821.729004  -33236.66796    369.349304
    6180           0     -1600.825317   2648.079590  -33236.66796    326.515564
    6181           0     -1908.342651   2435.814941  -33236.66796    285.955566
    6182           0     -2188.034668   2188.028809  -33236.66796    253.428528
    6183           0     -2435.820313   1908.335693  -33236.66796    233.683350
    6184           0     -2648.084473   1600.816650  -33236.66796    229.205856
    6185           0     -2821.733398   1269.955322  -33236.66796    239.893997
    6186           0     -2954.234863    920.577759  -33236.66796    262.161346
    6187           0     -3043.657959    557.775696  -33236.66796    288.860229
    6188           0     -3088.698242    186.834366  -33236.66796    307.076080
    6189           0      -186.836182   3088.698242  -32861.10937    457.979034
    6190           0      -557.780945   3043.656738  -32861.10937    436.480316
    6191           0      -920.586670   2954.231934  -32861.10937    404.834991
    6192           0     -1269.965332   2821.729004  -32861.10937    365.806152
    6193           0     -1600.825195   2648.079590  -32861.10937    323.575134
    6194           0     -1908.342529   2435.814941  -32861.10937    283.412720
    6195           0     -2188.034668   2188.028809  -32861.10937    250.972580
    6196           0     -2435.820313   1908.335693  -32861.11328    230.936050
    6197           0     -2648.084473   1600.816650  -32861.11328    225.941635
    6198           0     -2821.733398   1269.955322  -32861.11328    235.647430
    6199           0     -2954.234863    920.577759  -32861.11328    256.792908
    6200           0     -3043.657959    557.775696  -32861.11328    281.627106
    6201           0     -3088.698242    186.834366  -32861.11328    298.214020
    6202           0      -186.836151   3088.698242  -32485.55664    445.833099
    6203           0      -557.780945   3043.656738  -32485.55664    425.201294
    6204           0      -920.586670   2954.231934  -32485.55664    394.942719
    6205           0     -1269.965332   2821.729004  -32485.55664    357.642914
    6206           0     -1600.825195   2648.079590  -32485.55664    317.163330
    6207           0     -1908.342529   2435.814941  -32485.55664    278.499786
    6208           0     -2188.034668   2188.028809  -32485.55664    246.976501
    6209           0     -2435.820313   1908.335693  -32485.55664    227.157562
    6210           0     -2648.084473   1600.816650  -32485.55664    221.493988
    6211           0     -2821.733398   1269.955322  -32485.55664    229.758408
    6212           0     -2954.234863    920.577637  -32485.55664    248.427200
    6213           0     -3043.657959    557.775635  -32485.55664    269.833588
    6214           0     -3088.698242    186.834366  -32485.55664    282.936249
    6215           0      -186.836151   3088.698242  -32110.00000    439.096558
    6216           0      -557.780884   3043.656738  -32110.00000    418.958923
    6217           0      -920.586609   2954.231934  -32110.00000    389.535126
    6218           0     -1269.965210   2821.729004  -32110.00000    353.203583
    6219           0     -1600.825195   2648.079590  -32110.00000    313.654144
    6220           0     -1908.342529   2435.814941  -32110.00000    275.656403
    6221           0     -2188.034668   2188.028809  -32110.00000    244.398285
    6222           0     -2435.820313   1908.335693  -32110.00000    224.348251
    6223           0     -2648.084473   1600.816650  -32110.00000    218.007263
    6224           0     -2821.733398   1269.955322  -32110.00000    225.100464
    6225           0     -2954.234863    920.577515  -32110.00000    242.055862
    6226           0     -3043.657959    557.775452  -32110.00000    261.242004
    6227           0     -3088.698242    186.834290  -32110.00000    272.683624
    6228           0      -186.836121   3088.698242  -31734.44531    430.106201
    6229           0      -557.780884   3043.656738  -31734.44531    410.631134
    6230           0      -920.586609   2954.231934  -31734.44531    382.276520
    6231           0     -1269.965210   2821.729004  -31734.44531    347.256989
    6232           0     -1600.825195   2648.079590  -31734.44531    309.002106
    6233           0     -1908.342407   2435.815186  -31734.44531    272.029755
    6234           0     -2188.034424   2188.028809  -31734.44531    241.329376
    6235           0     -2435.820313   1908.335693  -31734.44531    221.252335
    6236           0     -2648.084473   1600.816650  -31734.44531    214.258148
    6237           0     -2821.733398   1269.955322  -31734.44531    220.086243
    6238           0     -2954.234863    920.577515  -31734.44531    235.008270
    6239           0     -3043.657959    557.775391  -31734.44531    251.690063
    6240           0     -3088.698242    186.834213  -31734.44531    260.759796
    6241           0      -186.836090   3088.698242  -31358.89062    421.997620
    6242           0      -557.780823   3043.656738  -31358.89062    403.122070
    6243           0      -920.586548   2954.231934  -31358.89062    375.754150
    6244           0     -1269.965088   2821.729004  -31358.89062    341.913239
    6245           0     -1600.824951   2648.079590  -31358.89062    304.801361
    6246           0     -1908.342407   2435.815430  -31358.89062    268.704132
    6247           0     -2188.034180   2188.029053  -31358.88867    238.424866
    6248           0     -2435.820313   1908.335693  -31358.88867    218.222778
    6249           0     -2648.084473   1600.816650  -31358.88867    210.568314
    6250           0     -2821.733398   1269.955322  -31358.88867    215.135849
    6251           0     -2954.234863    920.577515  -31358.88867    228.205658
    6252           0     -3043.657959    557.775391  -31358.88867    242.719406
    6253           0     -3088.698242    186.834213  -31358.88867    250.052048
    6254           0      -186.836090   3088.698242  -30983.33398    413.672211
    6255           0      -557.780762   3043.656738  -30983.33398    395.419006
    6256           0      -920.586487   2954.231934  -30983.33398    369.063232
    6257           0     -1269.965088   2821.729004  -30983.33398    336.444519
    6258           0     -1600.824951   2648.079590  -30983.33398    300.522095
    6259           0     -1908.342407   2435.815430  -30983.33398    265.338501
    6260           0     -2188.034180   2188.029053  -30983.33398    235.515854
    6261           0     -2435.820313   1908.335693  -30983.33398    215.224411
    6262           0     -2648.084473   1600.816650  -30983.33398    206.907944
    6263           0     -2821.733398   1269.955322  -30983.33398    210.224045
    6264           0     -2954.234863    920.577515  -30983.33398    221.480881
    6265           0     -3043.657959    557.775391  -30983.33398    233.933533
    6266           0     -3088.698242    186.834213  -30983.33398    239.506393
    6267           0      -186.836060   3088.698242  -30607.77734    405.478943
    6268           0      -557.780762   3043.656738  -30607.77734    387.841034
    6269           0      -920.586365   2954.232178  -30607.77734    362.492279
    6270           0     -1269.964966   2821.729004  -30607.77734    331.078247
    6271           0     -1600.824951   2648.079590  -30607.77734    296.320892
    6272           0     -1908.342285   2435.815430  -30607.77734    262.029266
    6273           0     -2188.034180   2188.029053  -30607.77734    232.640396
    6274           0     -2435.820313   1908.335693  -30607.77734    212.241714
    6275           0     -2648.084473   1600.816650  -30607.77734    203.259674
    6276           0     -2821.733398   1269.955322  -30607.77734    205.329468
    6277           0     -2954.234863    920.577515  -30607.77734    214.864792
    6278           0     -3043.657959    557.775391  -30607.77734    225.364212
    6279           0     -3088.698242    186.834213  -30607.77734    229.527252
    6280           0      -186.836060   3088.698242  -30232.22265    397.313965
    6281           0      -557.780640   3043.656738  -30232.22265    380.295624
    6282           0      -920.586304   2954.232178  -30232.22265    355.953583
    6283           0     -1269.964966   2821.729004  -30232.22265    325.745850
    6284           0     -1600.824951   2648.079590  -30232.22265    292.156067
    6285           0     -1908.342285   2435.815430  -30232.22265    258.750671
    6286           0     -2188.034180   2188.029053  -30232.22265    229.795898
    6287           0     -2435.820313   1908.335693  -30232.22265    209.293930
    6288           0     -2648.084473   1600.816650  -30232.22265    199.641541
    6289           0     -2821.733398   1269.955322  -30232.22265    200.501312
    6290           0     -2954.234863    920.577515  -30232.22265    208.392792
    6291           0     -3043.657959    557.775391  -30232.22265    217.077560
    6292           0     -3088.698242    186.834213  -30232.22265    220.155518
    6293           0      -186.836029   3088.698242  -29856.66796    389.206390
    6294           0      -557.780579   3043.656738  -29856.66796    372.806122
    6295           0      -920.586243   2954.232178  -29856.66796    349.470917
    6296           0     -1269.964844   2821.729004  -29856.66796    320.466095
    6297           0     -1600.824829   2648.079590  -29856.66796    288.033600
    6298           0     -1908.342285   2435.815430  -29856.66796    255.510193
    6299           0     -2188.034180   2188.029053  -29856.66796    226.985321
    6300           0     -2435.820313   1908.335693  -29856.66796    206.373993
    6301           0     -2648.084473   1600.816650  -29856.66796    196.058578
    6302           0     -2821.733398   1269.955322  -29856.66796    195.743240
    6303           0     -2954.234863    920.577515  -29856.66796    202.063309
    6304           0     -3043.657959    557.775391  -29856.66796    209.052887
    6305           0     -3088.698242    186.834213  -29856.66796    211.451416
    6306           0      -186.836014   3088.698242  -29481.10937    381.149597
    6307           0      -557.780518   3043.656738  -29481.10937    365.369354
    6308           0      -920.586182   2954.232178  -29481.10937    343.038574
    6309           0     -1269.964844   2821.729004  -29481.10937    315.231689
    6310           0     -1600.824707   2648.079590  -29481.10937    283.955688
    6311           0     -1908.342285   2435.815430  -29481.10937    252.306305
    6312           0     -2188.034180   2188.029053  -29481.10937    224.208588
    6313           0     -2435.820313   1908.335693  -29481.10937    203.490051
    6314           0     -2648.084473   1600.816650  -29481.10937    192.522858
    6315           0     -2821.733398   1269.955322  -29481.10937    191.077881
    6316           0     -2954.234863    920.577515  -29481.10937    195.898590
    6317           0     -3043.657959    557.775330  -29481.10937    201.364929
    6318           0     -3088.698242    186.834213  -29481.10937    203.584824
    6319           0      -186.835999   3088.698242  -29105.55468    373.146240
    6320           0      -557.780518   3043.656738  -29105.55468    357.983459
    6321           0      -920.586121   2954.232178  -29105.55468    336.657806
    6322           0     -1269.964844   2821.729492  -29105.55468    310.046783
    6323           0     -1600.824707   2648.079834  -29105.55468    279.914917
    6324           0     -1908.342285   2435.815430  -29105.55468    249.142120
    6325           0     -2188.034180   2188.029053  -29105.55468    221.470062
    6326           0     -2435.820313   1908.335693  -29105.55468    200.643646
    6327           0     -2648.084473   1600.816650  -29105.55468    189.047714
    6328           0     -2821.733398   1269.955322  -29105.55468    186.519989
    6329           0     -2954.234863    920.577393  -29105.55468    189.916504
    6330           0     -3043.657959    557.775269  -29105.55468    194.050369
    6331           0     -3088.698242    186.834213  -29105.55468    196.587173
    6332           0      -186.835968   3088.698242  -28729.99804    365.195251
    6333           0      -557.780457   3043.656738  -28729.99804    350.651245
    6334           0      -920.586060   2954.232178  -28729.99804    330.326782
    6335           0     -1269.964600   2821.729492  -28729.99804    304.907227
    6336           0     -1600.824707   2648.080078  -28729.99804    275.918823
    6337           0     -1908.342041   2435.815430  -28729.99804    246.010193
    6338           0     -2188.034180   2188.029053  -28729.99804    218.768036
    6339           0     -2435.820313   1908.335693  -28729.99804    197.843521
    6340           0     -2648.084473   1600.816650  -28729.99804    185.643723
    6341           0     -2821.733398   1269.955322  -28729.99804    182.083710
    6342           0     -2954.234863    920.577393  -28729.99804    184.141922
    6343           0     -3043.657959    557.775208  -28729.99804    187.167404
    6344           0     -3088.698242    186.834137  -28729.99804    190.586685
    6345           0      -186.835968   3088.698242  -28354.44140    357.298126
    6346           0      -557.780457   3043.656738  -28354.43945    343.370880
    6347           0      -920.586060   2954.232178  -28354.43945    324.045258
    6348           0     -1269.964600   2821.729492  -28354.44140    299.811584
    6349           0     -1600.824707   2648.080078  -28354.44140    271.962036
    6350           0     -1908.342041   2435.815430  -28354.44140    242.919754
    6351           0     -2188.034180   2188.029297  -28354.44140    216.099213
    6352           0     -2435.820313   1908.335693  -28354.44140    195.092728
    6353           0     -2648.084473   1600.816528  -28354.44140    182.324860
    6354           0     -2821.733398   1269.955322  -28354.44140    177.786377
    6355           0     -2954.234863    920.577393  -28354.44140    178.604263
    6356           0     -3043.657959    557.775146  -28354.44335    180.773758
    6357           0     -3088.698242    186.834076  -28354.44335    185.600739
    6358           0      -186.835938   3088.698242  -27978.88671    349.455017
    6359           0      -557.780396   3043.656738  -27978.88671    336.144592
    6360           0      -920.585938   2954.232178  -27978.88671    317.812286
    6361           0     -1269.964600   2821.729492  -27978.88671    294.758911
    6362           0     -1600.824463   2648.080078  -27978.89062    268.042450
    6363           0     -1908.342041   2435.815430  -27978.89062    239.863647
    6364           0     -2188.034180   2188.029297  -27978.89062    213.473083
    6365           0     -2435.820313   1908.335938  -27978.89062    192.396622
    6366           0     -2648.084717   1600.816528  -27978.89062    179.100677
    6367           0     -2821.733398   1269.955322  -27978.89062    173.646698
    6368           0     -2954.234863    920.577393  -27978.88867    173.335556
    6369           0     -3043.657959    557.775146  -27978.88867    174.915558
    6370           0     -3088.698242    186.834076  -27978.88867    181.686905
    6371           0      -186.835938   3088.698242  -27603.33593    341.667023
    6372           0      -557.780273   3043.656738  -27603.33789    328.970123
    6373           0      -920.585876   2954.232178  -27603.33593    311.629089
    6374           0     -1269.964600   2821.729492  -27603.33593    289.750214
    6375           0     -1600.824463   2648.080078  -27603.33593    264.162170
    6376           0     -1908.342041   2435.815430  -27603.33593    236.842484
    6377           0     -2188.034180   2188.029297  -27603.33593    210.885086
    6378           0     -2435.820313   1908.335938  -27603.33593    189.764542
    6379           0     -2648.084717   1600.816528  -27603.33593    175.982056
    6380           0     -2821.733398   1269.955322  -27603.33398    169.683029
    6381           0     -2954.234863    920.577393  -27603.33398    168.366928
    6382           0     -3043.657959    557.775146  -27603.33398    169.643372
    6383           0     -3088.698242    186.834076  -27603.33398    178.825180
    6384           0      -186.835907   3088.698242  -27227.77929    333.936127
    6385           0      -557.780273   3043.656738  -27227.78125    321.849823
    6386           0      -920.585815   2954.232178  -27227.77929    305.492523
    6387           0     -1269.964478   2821.729492  -27227.77929    284.782837
    6388           0     -1600.824341   2648.080078  -27227.77929    260.317505
    6389           0     -1908.342041   2435.815430  -27227.77929    233.855927
    6390           0     -2188.034180   2188.029297  -27227.77929    208.340103
    6391           0     -2435.820313   1908.335938  -27227.77929    187.198120
    6392           0     -2648.084717   1600.816528  -27227.77929    172.981140
    6393           0     -2821.733398   1269.955322  -27227.77734    165.916870
    6394           0     -2954.234863    920.577393  -27227.77734    163.728470
    6395           0     -3043.657959    557.775146  -27227.77734    164.986954
    6396           0     -3088.698242    186.834076  -27227.77734    176.999908
    6397           0      -186.835876   3088.698242  -26852.22265    326.262329
    6398           0      -557.780212   3043.656738  -26852.22265    314.781708
    6399           0      -920.585754   2954.232178  -26852.22265    299.404541
    6400           0     -1269.964478   2821.729492  -26852.22265    279.857422
    6401           0     -1600.824341   2648.080078  -26852.22265    256.508606
    6402           0     -1908.342041   2435.815430  -26852.22265    230.902176
    6403           0     -2188.034180   2188.029297  -26852.22265    205.835815
    6404           0     -2435.820313   1908.335938  -26852.22265    184.703369
    6405           0     -2648.084717   1600.816528  -26852.22265    170.107040
    6406           0     -2821.733398   1269.955322  -26852.22265    162.368973
    6407           0     -2954.234863    920.577393  -26852.22265    159.445648
    6408           0     -3043.657959    557.775085  -26852.22265    160.976181
    6409           0     -3088.698242    186.834076  -26852.22265    176.144333
    6410           0      -186.835876   3088.698242  -26476.66796    318.646698
    6411           0      -557.780151   3043.656738  -26476.66796    307.769470
    6412           0      -920.585693   2954.232422  -26476.66796    293.361176
    6413           0     -1269.964355   2821.729492  -26476.66796    274.971344
    6414           0     -1600.824341   2648.080078  -26476.66796    252.734100
    6415           0     -1908.341919   2435.815674  -26476.66796    227.980850
    6416           0     -2188.034180   2188.029297  -26476.66796    203.374557
    6417           0     -2435.820313   1908.335938  -26476.66796    182.281219
    6418           0     -2648.084717   1600.816528  -26476.66796    167.371719
    6419           0     -2821.733398   1269.955322  -26476.66796    159.057709
    6420           0     -2954.234863    920.577271  -26476.66796    155.540253
    6421           0     -3043.657959    557.774963  -26476.66796    157.618866
    6422           0     -3088.698242    186.834076  -26476.66796    176.184418
    6423           0      -186.835846   3088.698242  -26101.11132    311.091522
    6424           0      -557.780151   3043.656738  -26101.11132    300.813568
    6425           0      -920.585693   2954.232422  -26101.11132    287.366364
    6426           0     -1269.964355   2821.729492  -26101.11132    270.122925
    6427           0     -1600.824219   2648.080078  -26101.11132    248.992691
    6428           0     -1908.341797   2435.815674  -26101.11132    225.090179
    6429           0     -2188.034180   2188.029297  -26101.11132    200.954697
    6430           0     -2435.820313   1908.335938  -26101.11132    179.936447
    6431           0     -2648.084717   1600.816528  -26101.11132    164.785614
    6432           0     -2821.733398   1269.955322  -26101.11132    156.001648
    6433           0     -2954.234863    920.577271  -26101.11132    152.027481
    6434           0     -3043.657959    557.774963  -26101.11132    154.917938
    6435           0     -3088.698242    186.834076  -26101.11132    177.017654
    6436           0      -186.835846   3088.698242  -25725.55859    303.597107
    6437           0      -557.780090   3043.656738  -25725.55859    293.910706
    6438           0      -920.585571   2954.232422  -25725.55859    281.420197
    6439           0     -1269.964355   2821.729736  -25725.55859    265.313019
    6440           0     -1600.824219   2648.080078  -25725.55664    245.279999
    6441           0     -1908.341675   2435.815674  -25725.55664    222.230988
    6442           0     -2188.034180   2188.029297  -25725.55664    198.575745
    6443           0     -2435.820313   1908.335938  -25725.55664    177.669250
    6444           0     -2648.084717   1600.816528  -25725.55664    162.359238
    6445           0     -2821.733398   1269.955322  -25725.55468    153.213318
    6446           0     -2954.234863    920.577271  -25725.55468    148.916382
    6447           0     -3043.657959    557.774963  -25725.55468    152.855713
    6448           0     -3088.698242    186.834076  -25725.55468    178.538330
    6449           0      -186.835815   3088.698242  -25349.99804    296.164795
    6450           0      -557.780029   3043.656738  -25350.00000    287.066071
    6451           0      -920.585571   2954.232422  -25350.00000    275.520386
    6452           0     -1269.964111   2821.729736  -25350.00000    260.540314
    6453           0     -1600.824219   2648.080078  -25350.00000    241.596268
    6454           0     -1908.341675   2435.815674  -25349.99804    219.398392
    6455           0     -2188.034180   2188.029297  -25350.00000    196.234451
    6456           0     -2435.820313   1908.335938  -25350.00000    175.482529
    6457           0     -2648.084717   1600.816528  -25349.99804    160.100754
    6458           0     -2821.733398   1269.955322  -25349.99804    150.702850
    6459           0     -2954.234863    920.577271  -25349.99804    146.207962
    6460           0     -3043.657959    557.774902  -25349.99804    151.405899
    6461           0     -3088.698242    186.834000  -25349.99804    180.631958
    6462           0      -186.835785   3088.698242  -24974.44140    288.796753
    6463           0      -557.779968   3043.656738  -24974.43945    280.277802
    6464           0      -920.585449   2954.232422  -24974.43945    269.665802
    6465           0     -1269.964111   2821.729736  -24974.43945    255.803955
    6466           0     -1600.824219   2648.080078  -24974.43945    237.941681
    6467           0     -1908.341675   2435.815674  -24974.43945    216.588089
    6468           0     -2188.034180   2188.029297  -24974.44140    193.928223
    6469           0     -2435.820313   1908.335938  -24974.44140    173.376999
    6470           0     -2648.084717   1600.816528  -24974.44140    158.017685
    6471           0     -2821.733398   1269.955322  -24974.44140    148.474792
    6472           0     -2954.234863    920.577271  -24974.44140    143.897995
    6473           0     -3043.657959    557.774841  -24974.44140    150.527573
    6474           0     -3088.698242    186.833923  -24974.44335    183.187775
    6475           0      -186.835785   3088.698242  -24598.88867    281.494537
    6476           0      -557.779907   3043.656738  -24598.88867    273.548523
    6477           0      -920.585388   2954.232422  -24598.88867    263.857758
    6478           0     -1269.964111   2821.729736  -24598.88671    251.100220
    6479           0     -1600.824219   2648.080078  -24598.88671    234.312195
    6480           0     -1908.341675   2435.815674  -24598.88671    213.800232
    6481           0     -2188.034180   2188.029297  -24598.88671    191.653198
    6482           0     -2435.820313   1908.335938  -24598.88671    171.353973
    6483           0     -2648.084717   1600.816528  -24598.88671    156.114655
    6484           0     -2821.733398   1269.955322  -24598.88671    146.529739
    6485           0     -2954.234863    920.577271  -24598.89062    141.974228
    6486           0     -3043.657959    557.774841  -24598.88867    150.172119
    6487           0     -3088.698242    186.833923  -24598.88867    186.098770
    6488           0      -186.835754   3088.698242  -24223.33398    274.259796
    6489           0      -557.779907   3043.656738  -24223.33593    266.877869
    6490           0      -920.585327   2954.232422  -24223.33398    258.095703
    6491           0     -1269.964111   2821.729736  -24223.33398    246.431702
    6492           0     -1600.823975   2648.080078  -24223.33398    230.705750
    6493           0     -1908.341675   2435.815674  -24223.33398    211.028458
    6494           0     -2188.033936   2188.029297  -24223.33398    189.405914
    6495           0     -2435.820313   1908.335938  -24223.33398    169.413055
    6496           0     -2648.084717   1600.816528  -24223.33398    154.394623
    6497           0     -2821.733398   1269.955322  -24223.33398    144.862671
    6498           0     -2954.234863    920.577271  -24223.33398    140.419739
    6499           0     -3043.657959    557.774841  -24223.33398    150.281769
    6500           0     -3088.698242    186.833923  -24223.33398    189.266754
    6501           0      -186.835754   3088.698242  -23847.77734    267.094208
    6502           0      -557.779846   3043.656738  -23847.77734    260.267822
    6503           0      -920.585205   2954.232422  -23847.77734    252.380432
    6504           0     -1269.963989   2821.729736  -23847.77734    241.793839
    6505           0     -1600.823975   2648.080078  -23847.77734    227.118729
    6506           0     -1908.341553   2435.815918  -23847.77734    208.269104
    6507           0     -2188.033936   2188.029541  -23847.77734    187.182007
    6508           0     -2435.820313   1908.335938  -23847.77734    167.554276
    6509           0     -2648.084717   1600.816528  -23847.77734    152.856750
    6510           0     -2821.733398   1269.955322  -23847.77734    143.464920
    6511           0     -2954.234863    920.577148  -23847.77734    139.211060
    6512           0     -3043.657959    557.774780  -23847.77734    150.795120
    6513           0     -3088.698242    186.833923  -23847.77734    192.602875
    6514           0      -186.835724   3088.698242  -23472.22070    260.000183
    6515           0      -557.779785   3043.656738  -23472.21875    253.719009
    6516           0      -920.585205   2954.232422  -23472.21875    246.710617
    6517           0     -1269.963867   2821.729736  -23472.21875    237.187469
    6518           0     -1600.823975   2648.080322  -23472.21875    223.548386
    6519           0     -1908.341553   2435.815918  -23472.21875    205.515976
    6520           0     -2188.033936   2188.029541  -23472.21875    184.977371
    6521           0     -2435.820313   1908.335938  -23472.21875    165.776260
    6522           0     -2648.084717   1600.816528  -23472.21875    151.498108
    6523           0     -2821.733398   1269.955322  -23472.21875    142.323059
    6524           0     -2954.234863    920.577148  -23472.21875    138.321671
    6525           0     -3043.657959    557.774658  -23472.21875    151.647369
    6526           0     -3088.698242    186.833923  -23472.22265    196.028412
    6527           0      -186.835709   3088.698242  -23096.66210    252.977890
    6528           0      -557.779785   3043.656738  -23096.65820    247.232269
    6529           0      -920.585144   2954.232422  -23096.65820    241.087158
    6530           0     -1269.963867   2821.729736  -23096.65820    232.609192
    6531           0     -1600.823853   2648.080322  -23096.66015    219.990005
    6532           0     -1908.341553   2435.815918  -23096.66015    202.763779
    6533           0     -2188.033936   2188.029541  -23096.66015    182.786896
    6534           0     -2435.820313   1908.335938  -23096.66015    164.076721
    6535           0     -2648.084717   1600.816528  -23096.66210    150.311874
    6536           0     -2821.733398   1269.955322  -23096.66406    141.420181
    6537           0     -2954.234863    920.577148  -23096.66406    137.720322
    6538           0     -3043.657959    557.774658  -23096.66406    152.774551
    6539           0     -3088.698242    186.833923  -23096.66406    199.475174
    6540           0      -186.835693   3088.698242  -22721.10937    246.032852
    6541           0      -557.779602   3043.656738  -22721.10546    240.810776
    6542           0      -920.585022   2954.232422  -22721.10546    235.509964
    6543           0     -1269.963867   2821.729736  -22721.10546    228.059006
    6544           0     -1600.823730   2648.080566  -22721.10546    216.440399
    6545           0     -1908.341553   2435.815918  -22721.10546    200.007004
    6546           0     -2188.033936   2188.029541  -22721.10937    180.607071
    6547           0     -2435.820313   1908.335938  -22721.10937    162.453094
    6548           0     -2648.084717   1600.816528  -22721.10937    149.289932
    6549           0     -2821.733398   1269.955322  -22721.10937    140.737106
    6550           0     -2954.234863    920.577148  -22721.10937    137.374390
    6551           0     -3043.657959    557.774658  -22721.10937    154.113235
    6552           0     -3088.698242    186.833923  -22721.11132    202.883072
    6553           0      -186.835663   3088.698242  -22345.55468    239.164169
    6554           0      -557.779602   3043.656738  -22345.55273    234.454437
    6555           0      -920.585022   2954.232422  -22345.55273    229.979462
    6556           0     -1269.963867   2821.729980  -22345.55273    223.533554
    6557           0     -1600.823730   2648.080566  -22345.55273    212.894363
    6558           0     -1908.341553   2435.815918  -22345.55273    197.239670
    6559           0     -2188.033936   2188.029541  -22345.55273    178.432907
    6560           0     -2435.820313   1908.335938  -22345.55273    160.900818
    6561           0     -2648.084717   1600.816528  -22345.55273    148.420242
    6562           0     -2821.733398   1269.955322  -22345.55273    140.251770
    6563           0     -2954.234863    920.577148  -22345.55468    137.248886
    6564           0     -3043.657959    557.774658  -22345.55468    155.603439
    6565           0     -3088.698242    186.833923  -22345.55468    206.201813
    6566           0      -186.835663   3088.698242  -21969.99609    232.375671
    6567           0      -557.779541   3043.656738  -21969.99609    228.164978
    6568           0      -920.584900   2954.232422  -21969.99609    224.494949
    6569           0     -1269.963623   2821.729980  -21969.99609    219.031052
    6570           0     -1600.823730   2648.080566  -21969.99609    209.346817
    6571           0     -1908.341553   2435.815918  -21969.99609    194.455826
    6572           0     -2188.033936   2188.029541  -21969.99804    176.260117
    6573           0     -2435.820313   1908.335938  -21969.99804    159.414612
    6574           0     -2648.084717   1600.816528  -21969.99804    147.689316
    6575           0     -2821.733398   1269.955322  -21969.99804    139.940933
    6576           0     -2954.234863    920.577148  -21970.00000    137.308762
    6577           0     -3043.657959    557.774597  -21970.00000    157.189148
    6578           0     -3088.698242    186.833862  -21970.00000    209.388535
    6579           0      -186.835632   3088.698242  -21594.44335    225.668335
    6580           0      -557.779541   3043.656738  -21594.44335    221.944946
    6581           0      -920.584900   2954.232422  -21594.44335    219.058548
    6582           0     -1269.963623   2821.729980  -21594.44335    214.549179
    6583           0     -1600.823730   2648.080566  -21594.44335    205.792450
    6584           0     -1908.341553   2435.815918  -21594.44335    191.649933
    6585           0     -2188.033936   2188.029541  -21594.44335    174.084381
    6586           0     -2435.820313   1908.335938  -21594.44531    157.988037
    6587           0     -2648.084717   1600.816528  -21594.44531    147.081696
    6588           0     -2821.733398   1269.955322  -21594.44531    139.780273
    6589           0     -2954.234863    920.577148  -21594.44531    137.518936
    6590           0     -3043.657959    557.774536  -21594.44335    158.818451
    6591           0     -3088.698242    186.833786  -21594.44335    212.406998
    6592           0      -186.835617   3088.698242  -21218.88867    219.046555
    6593           0      -557.779480   3043.656982  -21218.88867    215.793610
    6594           0      -920.584839   2954.232422  -21218.88867    213.667877
    6595           0     -1269.963623   2821.729980  -21218.88867    210.084061
    6596           0     -1600.823730   2648.080566  -21218.88867    202.226013
    6597           0     -1908.341431   2435.815918  -21218.88867    188.816635
    6598           0     -2188.033936   2188.029541  -21218.88867    171.901215
    6599           0     -2435.820313   1908.335938  -21218.88867    156.613647
    6600           0     -2648.084717   1600.816528  -21218.88867    146.580521
    6601           0     -2821.733398   1269.955322  -21218.88867    139.745331
    6602           0     -2954.234863    920.577026  -21218.88867    137.844894
    6603           0     -3043.657959    557.774475  -21218.88867    160.444519
    6604           0     -3088.698242    186.833786  -21218.88867    215.226089
    6605           0      -186.835602   3088.698242  -20843.33398    212.511581
    6606           0      -557.779419   3043.656982  -20843.33398    209.715607
    6607           0      -920.584717   2954.232422  -20843.33203    208.321136
    6608           0     -1269.963501   2821.729980  -20843.33203    205.632736
    6609           0     -1600.823730   2648.080566  -20843.33398    198.642685
    6610           0     -1908.341309   2435.815918  -20843.33203    185.950455
    6611           0     -2188.033691   2188.029541  -20843.33203    169.706772
    6612           0     -2435.820313   1908.335938  -20843.33203    155.283127
    6613           0     -2648.084717   1600.816528  -20843.33203    146.167816
    6614           0     -2821.733398   1269.955322  -20843.33203    139.811798
    6615           0     -2954.234863    920.577026  -20843.33203    138.253876
    6616           0     -3043.657959    557.774414  -20843.33203    162.024780
    6617           0     -3088.698242    186.833786  -20843.33203    217.820511
    6618           0      -186.835571   3088.698242  -20467.77929    206.065521
    6619           0      -557.779419   3043.657227  -20467.77929    203.710968
    6620           0      -920.584717   2954.232910  -20467.77929    203.021423
    6621           0     -1269.963501   2821.729980  -20467.77929    201.191788
    6622           0     -1600.823486   2648.080566  -20467.77929    195.037140
    6623           0     -1908.341309   2435.815918  -20467.77929    183.047470
    6624           0     -2188.033691   2188.029541  -20467.77734    167.496399
    6625           0     -2435.820313   1908.335938  -20467.77734    153.987274
    6626           0     -2648.084717   1600.816528  -20467.77734    145.825409
    6627           0     -2821.733398   1269.955322  -20467.77734    139.955383
    6628           0     -2954.234863    920.577026  -20467.77734    138.714554
    6629           0     -3043.657959    557.774414  -20467.77734    163.521561
    6630           0     -3088.698242    186.833786  -20467.77734    220.167618
    6631           0      -186.835571   3088.698242  -20092.22070    199.712387
    6632           0      -557.779297   3043.657227  -20092.22070    197.782089
    6633           0      -920.584656   2954.232910  -20092.22070    197.766098
    6634           0     -1269.963379   2821.729980  -20092.22070    196.758347
    6635           0     -1600.823486   2648.080566  -20092.22070    191.403976
    6636           0     -1908.341309   2435.815918  -20092.22070    180.102905
    6637           0     -2188.033691   2188.029541  -20092.22265    165.266586
    6638           0     -2435.820068   1908.335938  -20092.22265    152.716583
    6639           0     -2648.084717   1600.816528  -20092.22265    145.534546
    6640           0     -2821.733398   1269.955322  -20092.22265    140.153137
    6641           0     -2954.234863    920.577026  -20092.22265    139.197449
    6642           0     -3043.657959    557.774414  -20092.22265    164.900986
    6643           0     -3088.698242    186.833786  -20092.22265    222.249847
    6644           0      -186.835541   3088.698242  -19716.66601    193.452209
    6645           0      -557.779236   3043.657227  -19716.66796    191.928680
    6646           0      -920.584534   2954.232910  -19716.66601    192.555115
    6647           0     -1269.963379   2821.729980  -19716.66601    192.328262
    6648           0     -1600.823486   2648.080566  -19716.66601    187.739105
    6649           0     -1908.341309   2435.815918  -19716.66601    177.113647
    6650           0     -2188.033691   2188.029541  -19716.66601    163.012299
    6651           0     -2435.820068   1908.335938  -19716.66796    151.460495
    6652           0     -2648.084717   1600.816528  -19716.66796    145.276520
    6653           0     -2821.733398   1269.955322  -19716.66796    140.382858
    6654           0     -2954.234863    920.577026  -19716.66796    139.675095
    6655           0     -3043.657959    557.774414  -19716.66796    166.133484
    6656           0     -3088.698242    186.833786  -19716.66796    224.051987
    6657           0      -186.835541   3088.698242  -19341.11328    187.290298
    6658           0      -557.779236   3043.657227  -19341.11523    186.154587
    6659           0      -920.584473   2954.232910  -19341.11328    187.387939
    6660           0     -1269.963379   2821.729980  -19341.11328    187.900040
    6661           0     -1600.823364   2648.080566  -19341.11328    184.038467
    6662           0     -1908.341309   2435.816162  -19341.11328    174.075958
    6663           0     -2188.033691   2188.029785  -19341.11328    160.731430
    6664           0     -2435.820068   1908.335938  -19341.11328    150.209488
    6665           0     -2648.084717   1600.816528  -19341.11328    145.033264
    6666           0     -2821.733398   1269.955322  -19341.11328    140.623703
    6667           0     -2954.234863    920.577026  -19341.11328    140.122482
    6668           0     -3043.657959    557.774414  -19341.11328    167.192566
    6669           0     -3088.698242    186.833786  -19341.11132    225.559448
    6670           0      -186.835510   3088.698242  -18965.55468    181.227081
    6671           0      -557.779175   3043.657227  -18965.55468    180.460251
    6672           0      -920.584473   2954.232910  -18965.55468    182.264175
    6673           0     -1269.963257   2821.729980  -18965.55468    183.468933
    6674           0     -1600.823364   2648.080566  -18965.55468    180.299072
    6675           0     -1908.341309   2435.816162  -18965.55468    170.988632
    6676           0     -2188.033691   2188.029785  -18965.55468    158.418900
    6677           0     -2435.820068   1908.335938  -18965.55468    148.952530
    6678           0     -2648.084717   1600.816528  -18965.55468    144.787003
    6679           0     -2821.733398   1269.955322  -18965.55468    140.855988
    6680           0     -2954.234863    920.577026  -18965.55468    140.516312
    6681           0     -3043.657959    557.774414  -18965.55468    168.055130
    6682           0     -3088.698242    186.833786  -18965.55468    226.761368
    6683           0      -186.835480   3088.698242  -18590.00000    175.265625
    6684           0      -557.779114   3043.657227  -18590.00000    174.846756
    6685           0      -920.584412   2954.232910  -18590.00000    177.183319
    6686           0     -1269.963135   2821.729980  -18590.00000    179.034058
    6687           0     -1600.823364   2648.080566  -18590.00000    176.516083
    6688           0     -1908.341187   2435.816406  -18590.00000    167.849548
    6689           0     -2188.033691   2188.029785  -18590.00000    156.074081
    6690           0     -2435.820068   1908.335938  -18590.00000    147.678909
    6691           0     -2648.084717   1600.816528  -18590.00000    144.521378
    6692           0     -2821.733398   1269.955322  -18590.00000    141.060867
    6693           0     -2954.234863    920.577026  -18590.00000    140.835892
    6694           0     -3043.657959    557.774292  -18590.00000    168.701157
    6695           0     -3088.698242    186.833710  -18589.99804    227.647797
    6696           0      -186.835480   3088.698242  -18214.44531    169.407120
    6697           0      -557.779114   3043.657227  -18214.44531    169.315933
    6698           0      -920.584351   2954.232910  -18214.44531    172.144577
    6699           0     -1269.963135   2821.729980  -18214.44531    174.592590
    6700           0     -1600.823242   2648.080811  -18214.44531    172.690369
    6701           0     -1908.340942   2435.816406  -18214.44531    164.655777
    6702           0     -2188.033691   2188.029785  -18214.44531    153.691208
    6703           0     -2435.820068   1908.335938  -18214.44531    146.378952
    6704           0     -2648.084717   1600.816528  -18214.44531    144.220596
    6705           0     -2821.733398   1269.955322  -18214.44531    141.221512
    6706           0     -2954.234863    920.576904  -18214.44531    141.061920
    6707           0     -3043.657959    557.774170  -18214.44531    169.113022
    6708           0     -3088.698242    186.833633  -18214.44531    228.209747
    6709           0      -186.835449   3088.698242  -17838.88867    163.653717
    6710           0      -557.779053   3043.657227  -17838.88671    163.868973
    6711           0      -920.584229   2954.232910  -17838.88671    167.147308
    6712           0     -1269.963013   2821.729980  -17838.88671    170.141571
    6713           0     -1600.823120   2648.080811  -17838.88671    168.817993
    6714           0     -1908.340942   2435.816406  -17838.88671    161.410126
    6715           0     -2188.033691   2188.029785  -17838.88867    151.268387
    6716           0     -2435.820068   1908.335938  -17838.88867    145.044312
    6717           0     -2648.084717   1600.816528  -17838.88867    143.868774
    6718           0     -2821.733398   1269.955322  -17838.88867    141.322311
    6719           0     -2954.235107    920.576904  -17838.88867    141.177841
    6720           0     -3043.657959    557.774109  -17838.88867    169.274994
    6721           0     -3088.698242    186.833633  -17838.88867    228.438873
    6722           0      -186.835449   3088.698242  -17463.33398    158.007462
    6723           0      -557.778992   3043.657227  -17463.33593    158.506607
    6724           0      -920.584229   2954.232910  -17463.33593    162.191986
    6725           0     -1269.962891   2821.729980  -17463.33593    165.681229
    6726           0     -1600.822998   2648.080811  -17463.33398    164.898865
    6727           0     -1908.340942   2435.816406  -17463.33398    158.110886
    6728           0     -2188.033691   2188.029785  -17463.33398    148.803833
    6729           0     -2435.820068   1908.335938  -17463.33203    143.665222
    6730           0     -2648.084717   1600.816528  -17463.33203    143.453827
    6731           0     -2821.733398   1269.955322  -17463.33203    141.348297
    6732           0     -2954.235107    920.576904  -17463.33398    141.168289
    6733           0     -3043.657959    557.774109  -17463.33203    169.173874
    6734           0     -3088.698242    186.833633  -17463.33203    228.328186
    6735           0      -186.835419   3088.698242  -17087.77929    152.469406
    6736           0      -557.778931   3043.657227  -17087.78125    153.230103
    6737           0      -920.584106   2954.232910  -17087.78125    157.277969
    6738           0     -1269.962891   2821.729980  -17087.78125    161.211014
    6739           0     -1600.822998   2648.080811  -17087.77929    160.933868
    6740           0     -1908.340942   2435.816406  -17087.77929    154.759415
    6741           0     -2188.033691   2188.029785  -17087.77929    146.298233
    6742           0     -2435.820068   1908.335938  -17087.77929    142.234756
    6743           0     -2648.084717   1600.816528  -17087.77734    142.961197
    6744           0     -2821.733398   1269.955322  -17087.77734    141.286407
    6745           0     -2954.235352    920.576782  -17087.77734    141.019928
    6746           0     -3043.657959    557.774109  -17087.77734    168.797745
    6747           0     -3088.698242    186.833633  -17087.77734    227.870712
    6748           0      -186.835388   3088.698242  -16712.22460    147.040451
    6749           0      -557.778870   3043.657227  -16712.22656    148.040329
    6750           0      -920.584045   2954.232910  -16712.22656    152.406845
    6751           0     -1269.962891   2821.730225  -16712.22460    156.730911
    6752           0     -1600.822998   2648.081055  -16712.22460    156.923798
    6753           0     -1908.340942   2435.816406  -16712.22460    151.357010
    6754           0     -2188.033691   2188.029785  -16712.22265    143.748138
    6755           0     -2435.820068   1908.335938  -16712.22265    140.744461
    6756           0     -2648.084717   1600.816528  -16712.22265    142.384583
    6757           0     -2821.733643   1269.955078  -16712.22265    141.122574
    6758           0     -2954.235352    920.576782  -16712.22265    140.722214
    6759           0     -3043.657959    557.774109  -16712.22265    168.136093
    6760           0     -3088.698242    186.833633  -16712.22265    227.059891
    6761           0      -186.835358   3088.698242  -16336.66992    141.721085
    6762           0      -557.778809   3043.657227  -16336.67187    142.937637
    6763           0      -920.583984   2954.232910  -16336.66992    147.578323
    6764           0     -1269.962769   2821.730225  -16336.66992    152.241974
    6765           0     -1600.822998   2648.081055  -16336.66992    152.870636
    6766           0     -1908.340942   2435.816406  -16336.66992    147.906891
    6767           0     -2188.033447   2188.029785  -16336.66992    141.153366
    6768           0     -2435.820068   1908.335938  -16336.66796    139.194016
    6769           0     -2648.084961   1600.816406  -16336.66796    141.707230
    6770           0     -2821.733643   1269.955078  -16336.66796    140.847778
    6771           0     -2954.235352    920.576782  -16336.66796    140.263916
    6772           0     -3043.657959    557.774109  -16336.66796    167.180481
    6773           0     -3088.698242    186.833633  -16336.66601    225.888901
    6774           0      -186.835358   3088.698242  -15961.10839    136.512421
    6775           0      -557.778809   3043.657227  -15961.10546    137.924713
    6776           0      -920.583923   2954.232910  -15961.10644    142.794479
    6777           0     -1269.962646   2821.730225  -15961.10644    147.747177
    6778           0     -1600.822998   2648.081055  -15961.10742    148.777527
    6779           0     -1908.340820   2435.816406  -15961.10742    144.412384
    6780           0     -2188.033447   2188.029785  -15961.10742    138.520172
    6781           0     -2435.820068   1908.335938  -15961.10839    137.575150
    6782           0     -2648.084961   1600.816406  -15961.10839    140.923248
    6783           0     -2821.733643   1269.955078  -15961.10937    140.452744
    6784           0     -2954.235352    920.576782  -15961.10937    139.636307
    6785           0     -3043.657959    557.774109  -15961.10937    165.923157
    6786           0     -3088.698242    186.833633  -15961.11035    224.352463
    6787           0      -186.835327   3088.698242  -15585.55175    131.414948
    6788           0      -557.778687   3043.657227  -15585.54882    133.000565
    6789           0      -920.583862   2954.232910  -15585.54882    138.057587
    6790           0     -1269.962646   2821.730225  -15585.54980    143.248642
    6791           0     -1600.822754   2648.081055  -15585.55078    144.649307
    6792           0     -1908.340820   2435.816406  -15585.55078    140.878983
    6793           0     -2188.033203   2188.029785  -15585.55078    135.845551
    6794           0     -2435.820068   1908.335938  -15585.55078    135.885635
    6795           0     -2648.084961   1600.816406  -15585.55078    140.027191
    6796           0     -2821.733643   1269.955078  -15585.55273    139.927689
    6797           0     -2954.235352    920.576660  -15585.55371    138.832672
    6798           0     -3043.657959    557.774048  -15585.55468    164.358170
    6799           0     -3088.698242    186.833633  -15585.55468    222.443253
    6800           0      -186.835312   3088.698242  -15209.99902    126.427811
    6801           0      -557.778687   3043.657227  -15210.00000    128.167114
    6802           0      -920.583862   2954.232910  -15209.99902    133.368408
    6803           0     -1269.962646   2821.730469  -15209.99902    138.750763
    6804           0     -1600.822754   2648.081055  -15209.99902    140.490707
    6805           0     -1908.340576   2435.816406  -15209.99902    137.311279
    6806           0     -2188.033203   2188.029785  -15209.99902    133.136871
    6807           0     -2435.820068   1908.335938  -15209.99902    134.124161
    6808           0     -2648.084961   1600.816406  -15209.99902    139.012436
    6809           0     -2821.733643   1269.955078  -15210.00000    139.265244
    6810           0     -2954.235352    920.576660  -15210.00000    137.847336
    6811           0     -3043.657959    557.773926  -15209.99902    162.480057
    6812           0     -3088.698242    186.833557  -15209.99902    220.155762
    6813           0      -186.835297   3088.698242  -14834.44335    121.552307
    6814           0      -557.778625   3043.657227  -14834.44335    123.424004
    6815           0      -920.583740   2954.232910  -14834.44335    128.732224
    6816           0     -1269.962524   2821.730469  -14834.44335    134.258575
    6817           0     -1600.822754   2648.081055  -14834.44335    136.308487
    6818           0     -1908.340576   2435.816406  -14834.44335    133.717041
    6819           0     -2188.033203   2188.029785  -14834.44335    130.396225
    6820           0     -2435.820068   1908.335938  -14834.44335    132.291763
    6821           0     -2648.084961   1600.816406  -14834.44335    137.875214
    6822           0     -2821.733643   1269.955078  -14834.44335    138.459122
    6823           0     -2954.235352    920.576660  -14834.44335    136.675705
    6824           0     -3043.657959    557.773865  -14834.44335    160.284714
    6825           0     -3088.698242    186.833496  -14834.44335    217.483414
    6826           0      -186.835266   3088.698242  -14458.88769    116.787468
    6827           0      -557.778564   3043.657227  -14458.88671    118.774895
    6828           0      -920.583740   2954.232910  -14458.88769    124.148163
    6829           0     -1269.962524   2821.730469  -14458.88769    129.777405
    6830           0     -1600.822632   2648.081055  -14458.88769    132.110336
    6831           0     -1908.340576   2435.816406  -14458.88769    130.103363
    6832           0     -2188.033203   2188.029785  -14458.88769    127.631691
    6833           0     -2435.820068   1908.335938  -14458.88769    130.390259
    6834           0     -2648.084961   1600.816406  -14458.88769    136.613312
    6835           0     -2821.733643   1269.955078  -14458.88769    137.504135
    6836           0     -2954.235352    920.576660  -14458.88769    135.314743
    6837           0     -3043.657959    557.773865  -14458.88867    157.769165
    6838           0     -3088.698242    186.833496  -14458.88867    214.419632
    6839           0      -186.835266   3088.698242  -14083.33105    112.131592
    6840           0      -557.778503   3043.657227  -14083.33007    114.217697
    6841           0      -920.583618   2954.232910  -14083.33007    119.623230
    6842           0     -1269.962402   2821.730469  -14083.33007    125.313553
    6843           0     -1600.822510   2648.081055  -14083.33105    127.905151
    6844           0     -1908.340576   2435.816406  -14083.33105    126.480339
    6845           0     -2188.033203   2188.029785  -14083.33105    124.849457
    6846           0     -2435.820068   1908.335938  -14083.33105    128.424072
    6847           0     -2648.084961   1600.816406  -14083.33105    135.226273
    6848           0     -2821.733643   1269.955078  -14083.33105    136.396515
    6849           0     -2954.235352    920.576660  -14083.33203    133.762756
    6850           0     -3043.657959    557.773865  -14083.33300    154.931900
    6851           0     -3088.698242    186.833496  -14083.33300    210.957932
    6852           0      -186.835236   3088.698242  -13707.77539    107.585617
    6853           0      -557.778503   3043.657227  -13707.77343    109.755272
    6854           0      -920.583557   2954.232910  -13707.77441    115.160439
    6855           0     -1269.962402   2821.730469  -13707.77441    120.876137
    6856           0     -1600.822510   2648.081055  -13707.77539    123.703041
    6857           0     -1908.340576   2435.816406  -13707.77539    122.858490
    6858           0     -2188.033203   2188.029785  -13707.77539    122.059715
    6859           0     -2435.820068   1908.335938  -13707.77539    126.398697
    6860           0     -2648.084961   1600.816406  -13707.77539    133.715958
    6861           0     -2821.733643   1269.955078  -13707.77636    135.133575
    6862           0     -2954.235352    920.576660  -13707.77636    132.019760
    6863           0     -3043.657959    557.773865  -13707.77734    151.772018
    6864           0     -3088.698242    186.833496  -13707.77734    207.091782
    6865           0      -186.835220   3088.698242  -13332.22460    103.148529
    6866           0      -557.778442   3043.657227  -13332.22656    105.389145
    6867           0      -920.583496   2954.232910  -13332.22656    110.765160
    6868           0     -1269.962402   2821.730469  -13332.22656    116.472618
    6869           0     -1600.822510   2648.081055  -13332.22460    119.518318
    6870           0     -1908.340576   2435.816406  -13332.22460    119.250404
    6871           0     -2188.033203   2188.029785  -13332.22460    119.271286
    6872           0     -2435.820068   1908.335938  -13332.22363    124.322960
    6873           0     -2648.084961   1600.816406  -13332.22363    132.084717
    6874           0     -2821.733643   1269.955078  -13332.22265    133.714569
    6875           0     -2954.235352    920.576660  -13332.22265    130.087021
    6876           0     -3043.657959    557.773865  -13332.22168    148.290771
    6877           0     -3088.698242    186.833496  -13332.22168    202.814743
    6878           0      -186.835205   3088.698242  -12956.67382     98.820503
    6879           0      -557.778320   3043.657227  -12956.67773    101.120155
    6880           0      -920.583435   2954.232910  -12956.67773    106.442444
    6881           0     -1269.962280   2821.730469  -12956.67675    112.116135
    6882           0     -1600.822510   2648.081299  -12956.67480    115.359741
    6883           0     -1908.340576   2435.816650  -12956.67382    115.669479
    6884           0     -2188.033203   2188.029785  -12956.67382    116.498123
    6885           0     -2435.819824   1908.336060  -12956.67285    122.206039
    6886           0     -2648.084961   1600.816406  -12956.67187    130.340195
    6887           0     -2821.733643   1269.955078  -12956.67089    132.140030
    6888           0     -2954.235352    920.576660  -12956.66992    127.967888
    6889           0     -3043.657959    557.773865  -12956.66796    144.489960
    6890           0     -3088.698242    186.833496  -12956.66796    198.120041
    6891           0      -186.835175   3088.698242  -12581.11718     94.600723
    6892           0      -557.778320   3043.657227  -12581.12304     96.950844
    6893           0      -920.583374   2954.232910  -12581.12207    102.197578
    6894           0     -1269.962158   2821.730469  -12581.12109    107.814018
    6895           0     -1600.822388   2648.081299  -12581.12011    111.245750
    6896           0     -1908.340576   2435.816650  -12581.11914    112.130203
    6897           0     -2188.033203   2188.030029  -12581.11718    113.753281
    6898           0     -2435.819824   1908.336182  -12581.11718    120.060410
    6899           0     -2648.084961   1600.816406  -12581.11523    128.485657
    6900           0     -2821.733643   1269.955078  -12581.11523    130.413513
    6901           0     -2954.235352    920.576538  -12581.11523    125.667114
    6902           0     -3043.657959    557.773804  -12581.11328    140.375381
    6903           0     -3088.698242    186.833496  -12581.11328    193.000076
    6904           0      -186.835175   3088.698242  -12205.56054     90.490051
    6905           0      -557.778259   3043.657227  -12205.56445     92.882088
    6906           0      -920.583313   2954.232910  -12205.56445     98.037514
    6907           0     -1269.962158   2821.730469  -12205.56445    103.580193
    6908           0     -1600.822388   2648.081299  -12205.56250    107.191666
    6909           0     -1908.340332   2435.816895  -12205.56152    108.650955
    6910           0     -2188.033203   2188.030273  -12205.56152    111.051765
    6911           0     -2435.819824   1908.336182  -12205.56054    117.898514
    6912           0     -2648.084961   1600.816406  -12205.55859    126.536430
    6913           0     -2821.733643   1269.955078  -12205.55859    128.539536
    6914           0     -2954.235352    920.576538  -12205.55859    123.192444
    6915           0     -3043.657959    557.773682  -12205.55664    135.953003
    6916           0     -3088.698242    186.833496  -12205.55664    187.452866
    6917           0      -186.835144   3088.698242  -11830.00000     86.488266
    6918           0      -557.778259   3043.657227  -11830.00000     88.918182
    6919           0      -920.583252   2954.232910  -11830.00000     93.970337
    6920           0     -1269.962158   2821.730469  -11830.00000     99.428535
    6921           0     -1600.822266   2648.081299  -11830.00097    103.215912
    6922           0     -1908.340210   2435.816895  -11830.00097    105.250862
    6923           0     -2188.033203   2188.030273  -11830.00000    108.411781
    6924           0     -2435.819824   1908.336182  -11830.00000    115.736259
    6925           0     -2648.084961   1600.816406  -11830.00000    124.501648
    6926           0     -2821.733643   1269.955078  -11830.00000    126.524864
    6927           0     -2954.235352    920.576538  -11830.00000    120.553665
    6928           0     -3043.658203    557.773621  -11830.00000    131.233215
    6929           0     -3088.698486    186.833420  -11830.00097    181.470245
    6930           0      -186.835144   3088.698242  -11454.43945     82.596344
    6931           0      -557.778198   3043.657227  -11454.43554     85.061584
    6932           0      -920.583252   2954.232910  -11454.43652     90.003418
    6933           0     -1269.962036   2821.730469  -11454.43750     95.372688
    6934           0     -1600.822266   2648.081299  -11454.43945     99.338371
    6935           0     -1908.340210   2435.816895  -11454.43945    101.949684
    6936           0     -2188.033203   2188.030273  -11454.43945    105.849602
    6937           0     -2435.819824   1908.336182  -11454.44140    113.590767
    6938           0     -2648.084961   1600.816406  -11454.44140    122.397499
    6939           0     -2821.733643   1269.955078  -11454.44140    124.379433
    6940           0     -2954.235352    920.576538  -11454.44335    117.763702
    6941           0     -3043.658203    557.773560  -11454.44335    126.228539
    6942           0     -3088.698730    186.833344  -11454.44335    175.049088
    6943           0      -186.835114   3088.698242  -11078.88671     78.815788
    6944           0      -557.778137   3043.657227  -11078.88671     81.316551
    6945           0      -920.583130   2954.233154  -11078.88769     86.145103
    6946           0     -1269.961914   2821.730469  -11078.88769     91.430618
    6947           0     -1600.822266   2648.081299  -11078.88769     95.580544
    6948           0     -1908.340210   2435.816895  -11078.88769     98.770576
    6949           0     -2188.033203   2188.030273  -11078.88769    103.385208
    6950           0     -2435.819824   1908.336182  -11078.88671    111.479691
    6951           0     -2648.084961   1600.816406  -11078.88671    120.240234
    6952           0     -2821.733643   1269.955078  -11078.88671    122.116455
    6953           0     -2954.235352    920.576538  -11078.88867    114.838760
    6954           0     -3043.658203    557.773560  -11078.88867    120.957436
    6955           0     -3088.698730    186.833344  -11078.88867    168.186722
    6956           0      -186.835083   3088.698242  -10703.33105     75.148590
    6957           0      -557.778076   3043.657227  -10703.33007     77.687813
    6958           0      -920.583069   2954.233154  -10703.33007     82.407867
    6959           0     -1269.961914   2821.730469  -10703.33007     87.615631
    6960           0     -1600.822144   2648.081543  -10703.33105     91.965332
    6961           0     -1908.340210   2435.816895  -10703.33105     95.736710
    6962           0     -2188.033203   2188.030273  -10703.33105    101.038383
    6963           0     -2435.819824   1908.336182  -10703.33105    109.422058
    6964           0     -2648.084961   1600.816406  -10703.33105    118.049324
    6965           0     -2821.733643   1269.955078  -10703.33203    119.751427
    6966           0     -2954.235352    920.576538  -10703.33203    111.799728
    6967           0     -3043.658203    557.773560  -10703.33203    115.443550
    6968           0     -3088.698730    186.833344  -10703.33300    160.883301
    6969           0      -186.835083   3088.698242  -10327.77539     71.597641
    6970           0      -557.778015   3043.657227  -10327.77343     74.180511
    6971           0      -920.583008   2954.233154  -10327.77343     78.799255
    6972           0     -1269.961914   2821.730469  -10327.77343     83.949074
    6973           0     -1600.822021   2648.081543  -10327.77441     88.517563
    6974           0     -1908.340210   2435.816895  -10327.77441     92.873817
    6975           0     -2188.033203   2188.030273  -10327.77539     98.829750
    6976           0     -2435.819824   1908.336182  -10327.77539    107.437462
    6977           0     -2648.084961   1600.816406  -10327.77539    115.845505
    6978           0     -2821.733643   1269.955078  -10327.77539    117.304108
    6979           0     -2954.235352    920.576538  -10327.77636    108.671959
    6980           0     -3043.658203    557.773560  -10327.77734    109.718742
    6981           0     -3088.698730    186.833344  -10327.77734    153.141586
    6982           0      -186.835052   3088.698242  -9952.218750     68.166634
    6983           0      -557.777954   3043.657227  -9952.216797     70.801750
    6984           0      -920.582947   2954.233154  -9952.216797     75.333221
    6985           0     -1269.961792   2821.730713  -9952.216797     80.450378
    6986           0     -1600.822021   2648.081543  -9952.217773     85.264107
    6987           0     -1908.340210   2435.816895  -9952.217773     90.207443
    6988           0     -2188.033203   2188.030273  -9952.218750     96.780182
    6989           0     -2435.819824   1908.336182  -9952.218750    105.545357
    6990           0     -2648.084961   1600.816406  -9952.218750    113.651466
    6991           0     -2821.733643   1269.955078  -9952.218750    114.797180
    6992           0     -2954.235352    920.576416  -9952.219727    105.487282
    6993           0     -3043.658203    557.773499  -9952.220703    103.825203
    6994           0     -3088.698730    186.833344  -9952.220703    144.969879
    6995           0      -186.835052   3088.698242  -9576.662109     64.859818
    6996           0      -557.777954   3043.657227  -9576.659180     67.558662
    6997           0      -920.582886   2954.233154  -9576.660156     72.023651
    6998           0     -1269.961670   2821.730713  -9576.661133     77.140511
    6999           0     -1600.822021   2648.081543  -9576.661133     82.231476
    7000           0     -1908.340210   2435.816895  -9576.661133     87.763916
    7001           0     -2188.033203   2188.030273  -9576.662109     94.909721
    7002           0     -2435.819824   1908.336182  -9576.662109    103.764725
    7003           0     -2648.084961   1600.816406  -9576.662109    111.490028
    7004           0     -2821.733643   1269.955078  -9576.663086    112.257179
    7005           0     -2954.235352    920.576294  -9576.665039    102.283493
    7006           0     -3043.658203    557.773376  -9576.665039     97.818283
    7007           0     -3088.698730    186.833344  -9576.666016    136.381027
    7008           0      -186.835022   3088.698242  -9201.111328     61.683601
    7009           0      -557.777893   3043.657227  -9201.112305     64.461113
    7010           0      -920.582825   2954.233154  -9201.112305     68.885262
    7011           0     -1269.961670   2821.730713  -9201.111328     74.042488
    7012           0     -1600.822021   2648.081543  -9201.112305     79.448051
    7013           0     -1908.340088   2435.816895  -9201.112305     85.569138
    7014           0     -2188.033203   2188.030273  -9201.111328     93.238159
    7015           0     -2435.819824   1908.336182  -9201.111328    102.113533
    7016           0     -2648.084961   1600.816406  -9201.111328    109.385132
    7017           0     -2821.733643   1269.955078  -9201.112305    109.714119
    7018           0     -2954.235352    920.576294  -9201.112305     99.107170
    7019           0     -3043.658203    557.773376  -9201.111328     91.772903
    7020           0     -3088.698730    186.833344  -9201.111328    127.400223
    7021           0      -186.835007   3088.698242  -8825.559570     58.644676
    7022           0      -557.777832   3043.657227  -8825.563477     61.519386
    7023           0      -920.582764   2954.233398  -8825.561523     65.934944
    7024           0     -1269.961670   2821.730713  -8825.560547     71.180244
    7025           0     -1600.821777   2648.081543  -8825.560547     76.941727
    7026           0     -1908.340088   2435.816895  -8825.560547     83.647919
    7027           0     -2188.033203   2188.030273  -8825.559570     91.783226
    7028           0     -2435.819824   1908.336182  -8825.558594    100.608177
    7029           0     -2648.084961   1600.816406  -8825.558594    107.359360
    7030           0     -2821.733643   1269.955078  -8825.557617    107.200775
    7031           0     -2954.235352    920.576294  -8825.557617     96.012032
    7032           0     -3043.658203    557.773376  -8825.556641     85.789139
    7033           0     -3088.698730    186.833344  -8825.555664    118.063889
    7034           0      -186.834991   3088.698242  -8450.000977     55.751709
    7035           0      -557.777771   3043.657227  -8450.000977     58.745171
    7036           0      -920.582764   2954.233398  -8450.000977     63.190704
    7037           0     -1269.961670   2821.730713  -8450.000977     68.578651
    7038           0     -1600.821777   2648.081543  -8450.000977     74.739792
    7039           0     -1908.340088   2435.816895  -8450.000977     82.022728
    7040           0     -2188.033203   2188.030273  -8450.000977     90.561066
    7041           0     -2435.819824   1908.336182  -8450.000977     99.262428
    7042           0     -2648.084961   1600.816406  -8450.000977    105.434364
    7043           0     -2821.733643   1269.955078  -8450.000977    104.752075
    7044           0     -2954.235352    920.576294  -8450.000977     93.062553
    7045           0     -3043.658203    557.773315  -8450.000977     80.000145
    7046           0     -3088.698730    186.833282  -8450.000977    108.432884
    7047           0      -186.834961   3088.698242  -8074.442383     53.014675
    7048           0      -557.777710   3043.657227  -8074.439453     56.151730
    7049           0      -920.582642   2954.233398  -8074.439453     60.671894
    7050           0     -1269.961548   2821.730713  -8074.440430     66.262978
    7051           0     -1600.821777   2648.081543  -8074.441406     72.867569
    7052           0     -1908.339966   2435.816895  -8074.441406     80.713470
    7053           0     -2188.033203   2188.030273  -8074.441406     89.584732
    7054           0     -2435.819824   1908.336182  -8074.442383     98.087944
    7055           0     -2648.084961   1600.816406  -8074.442383    103.628593
    7056           0     -2821.733643   1269.955078  -8074.443359    102.404549
    7057           0     -2954.235352    920.576294  -8074.444336     90.329941
    7058           0     -3043.658203    557.773254  -8074.445313     74.584724
    7059           0     -3088.698730    186.833206  -8074.445313     98.598251
    7060           0      -186.834961   3088.698242  -7698.890625     50.445007
    7061           0      -557.777649   3043.657227  -7698.891602     53.754036
    7062           0      -920.582581   2954.233398  -7698.891113     58.399082
    7063           0     -1269.961426   2821.730713  -7698.891113     64.258224
    7064           0     -1600.821777   2648.081543  -7698.891113     71.347107
    7065           0     -1908.339844   2435.817139  -7698.891113     79.736015
    7066           0     -2188.032959   2188.030273  -7698.890625     88.864662
    7067           0     -2435.819824   1908.336182  -7698.890137     97.092690
    7068           0     -2648.084961   1600.816406  -7698.890137    101.958145
    7069           0     -2821.733643   1269.955078  -7698.890137    100.193115
    7070           0     -2954.235352    920.576294  -7698.890137     87.894943
    7071           0     -3043.658203    557.773254  -7698.889648     69.771500
    7072           0     -3088.698730    186.833206  -7698.889160     88.706184
    7073           0      -186.834930   3088.698242  -7323.333984     48.055420
    7074           0      -557.777649   3043.657227  -7323.333984     51.567986
    7075           0      -920.582458   2954.233398  -7323.334473     56.393284
    7076           0     -1269.961304   2821.730957  -7323.333984     62.581944
    7077           0     -1600.821655   2648.081543  -7323.333984     70.198219
    7078           0     -1908.339844   2435.817139  -7323.334473     79.102104
    7079           0     -2188.032959   2188.030273  -7323.333984     88.406830
    7080           0     -2435.819824   1908.336182  -7323.333496     96.282585
    7081           0     -2648.084961   1600.816406  -7323.333984    100.433456
    7082           0     -2821.733643   1269.955078  -7323.333984     98.151794
    7083           0     -2954.235352    920.576294  -7323.333496     85.840050
    7084           0     -3043.658203    557.773254  -7323.333496     65.847420
    7085           0     -3088.698730    186.833206  -7323.333496     78.986885
    7086           0      -186.834915   3088.698242  -6947.776367     45.859661
    7087           0      -557.777588   3043.657227  -6947.775391     49.608673
    7088           0      -920.582458   2954.233398  -6947.775879     54.669540
    7089           0     -1269.961304   2821.730957  -6947.775879     61.261650
    7090           0     -1600.821533   2648.081787  -6947.776367     69.433571
    7091           0     -1908.339844   2435.817139  -6947.776855     78.816391
    7092           0     -2188.032959   2188.030273  -6947.776367     88.214943
    7093           0     -2435.819824   1908.336182  -6947.775879     95.659256
    7094           0     -2648.084961   1600.816406  -6947.776367     99.061714
    7095           0     -2821.733643   1269.955078  -6947.776855     96.308243
    7096           0     -2954.235352    920.576294  -6947.776855     84.249763
    7097           0     -3043.658203    557.773193  -6947.777344     63.133076
    7098           0     -3088.698730    186.833206  -6947.777832     69.817123
    7099           0      -186.834900   3088.698242  -6572.225586     43.872719
    7100           0      -557.777527   3043.657227  -6572.228027     47.891521
    7101           0      -920.582397   2954.233398  -6572.227539     53.252357
    7102           0     -1269.961182   2821.730957  -6572.226563     60.308186
    7103           0     -1600.821533   2648.081787  -6572.226074     69.057983
    7104           0     -1908.339844   2435.817139  -6572.226074     78.879311
    7105           0     -2188.032959   2188.030273  -6572.225098     88.288048
    7106           0     -2435.819824   1908.336182  -6572.224609     95.222702
    7107           0     -2648.084961   1600.816406  -6572.224609     97.843513
    7108           0     -2821.733643   1269.955078  -6572.223633     94.685425
    7109           0     -2954.235352    920.576172  -6572.223145     83.198181
    7110           0     -3043.658203    557.773132  -6572.223145     61.945675
    7111           0     -3088.698730    186.833206  -6572.222656     61.792953
    7112           0      -186.834869   3088.698242  -6196.667480     42.110352
    7113           0      -557.777466   3043.657227  -6196.667969     46.431873
    7114           0      -920.582275   2954.233398  -6196.667969     52.152477
    7115           0     -1269.961182   2821.730957  -6196.667480     59.730156
    7116           0     -1600.821533   2648.081787  -6196.667480     69.072685
    7117           0     -1908.339844   2435.817139  -6196.667969     79.285439
    7118           0     -2188.032959   2188.030273  -6196.667480     88.623207
    7119           0     -2435.819824   1908.336182  -6196.666992     94.968697
    7120           0     -2648.084961   1600.816406  -6196.667480     96.776871
    7121           0     -2821.733643   1269.955078  -6196.667480     93.295143
    7122           0     -2954.235352    920.576172  -6196.666992     82.746780
    7123           0     -3043.658203    557.773132  -6196.666992     62.513947
    7124           0     -3088.698730    186.833206  -6196.666992     55.819668
    7125           0      -186.834869   3088.698242  -5821.109375     40.587940
    7126           0      -557.777466   3043.657227  -5821.107910     45.241661
    7127           0      -920.582275   2954.233398  -5821.107910     51.379780
    7128           0     -1269.961182   2821.730957  -5821.107910     59.529877
    7129           0     -1600.821533   2648.081787  -5821.108887     69.469475
    7130           0     -1908.339844   2435.817139  -5821.108887     80.026993
    7131           0     -2188.032959   2188.030273  -5821.108887     89.212563
    7132           0     -2435.819824   1908.336304  -5821.108887     94.892693
    7133           0     -2648.084961   1600.816284  -5821.109863     95.853355
    7134           0     -2821.733643   1269.955078  -5821.110352     92.142548
    7135           0     -2954.235352    920.576172  -5821.110352     82.929703
    7136           0     -3043.658203    557.773132  -5821.110840     64.920204
    7137           0     -3088.698730    186.833206  -5821.111328     53.021839
    7138           0      -186.834839   3088.698242  -5445.558105     39.319260
    7139           0      -557.777344   3043.657227  -5445.560059     44.330177
    7140           0      -920.582275   2954.233398  -5445.559570     50.937691
    7141           0     -1269.961182   2821.730957  -5445.559082     59.701958
    7142           0     -1600.821411   2648.081787  -5445.558594     70.235237
    7143           0     -1908.339844   2435.817139  -5445.558594     81.088356
    7144           0     -2188.032715   2188.030518  -5445.558105     90.048584
    7145           0     -2435.819824   1908.336426  -5445.557617     94.987297
    7146           0     -2648.084961   1600.816284  -5445.557617     95.064903
    7147           0     -2821.733887   1269.954834  -5445.557129     91.218964
    7148           0     -2954.235352    920.576172  -5445.556641     83.755455
    7149           0     -3043.658203    557.773132  -5445.556152     69.071114
    7150           0     -3088.698730    186.833206  -5445.555664     54.309483
    7151           0      -186.834839   3088.698242  -5070.000488     38.315056
    7152           0      -557.777344   3043.657227  -5070.000977     43.702480
    7153           0      -920.582153   2954.233398  -5070.000977     50.823120
    7154           0     -1269.961060   2821.730957  -5070.000977     60.234890
    7155           0     -1600.821411   2648.082031  -5070.000977     71.350990
    7156           0     -1908.339600   2435.817383  -5070.000977     82.444809
    7157           0     -2188.032715   2188.030518  -5070.000488     91.120178
    7158           0     -2435.819824   1908.336426  -5070.000000     95.249260
    7159           0     -2648.084961   1600.816284  -5070.000488     94.398109
    7160           0     -2821.733887   1269.954834  -5070.000488     90.511040
    7161           0     -2954.235352    920.576172  -5070.000000     85.197662
    7162           0     -3043.658203    557.773071  -5070.000000     74.748360
    7163           0     -3088.698730    186.833130  -5070.000000     59.776394
    7164           0      -186.834808   3088.698242  -4694.442383     37.582642
    7165           0      -557.777283   3043.657227  -4694.440918     43.358120
    7166           0      -920.582092   2954.233398  -4694.441406     51.027554
    7167           0     -1269.960938   2821.730957  -4694.441406     61.107857
    7168           0     -1600.821289   2648.082031  -4694.441895     72.795395
    7169           0     -1908.339478   2435.817383  -4694.442383     84.091209
    7170           0     -2188.032715   2188.030762  -4694.442383     92.406395
    7171           0     -2435.819824   1908.336426  -4694.442383     95.663704
    7172           0     -2648.084961   1600.816284  -4694.442871     93.842239
    7173           0     -2821.733887   1269.954834  -4694.443359     89.993362
    7174           0     -2954.235352    920.576172  -4694.443359     87.205254
    7175           0     -3043.658203    557.773010  -4694.443848     81.674583
    7176           0     -3088.698730    186.833069  -4694.444824     68.712761
    7177           0      -186.834778   3088.698242  -4318.892090     37.124126
    7178           0      -557.777222   3043.657227  -4318.894531     43.291233
    7179           0      -920.582031   2954.233398  -4318.894531     51.535465
    7180           0     -1269.960938   2821.730957  -4318.893555     62.296906
    7181           0     -1600.821289   2648.082031  -4318.893555     74.536697
    7182           0     -1908.339478   2435.817383  -4318.892578     85.996323
    7183           0     -2188.032715   2188.030762  -4318.892090     93.909943
    7184           0     -2435.819824   1908.336426  -4318.891602     96.225685
    7185           0     -2648.084961   1600.816284  -4318.891113     93.380074
    7186           0     -2821.733887   1269.954834  -4318.890625     89.643715
    7187           0     -2954.235352    920.576172  -4318.890137     89.703018
    7188           0     -3043.658203    557.772949  -4318.889648     89.567162
    7189           0     -3088.698730    186.833069  -4318.889160     80.196289
    7190           0      -186.834778   3088.698242  -3943.334717     36.935532
    7191           0      -557.777222   3043.657227  -3943.335449     43.490917
    7192           0      -920.581970   2954.233398  -3943.335449     52.326191
    7193           0     -1269.960815   2821.730957  -3943.334961     63.773338
    7194           0     -1600.821167   2648.082031  -3943.334961     76.552254
    7195           0     -1908.339478   2435.817383  -3943.334961     88.140297
    7196           0     -2188.032715   2188.030762  -3943.334473     95.608498
    7197           0     -2435.819824   1908.336426  -3943.333984     96.926361
    7198           0     -2648.084961   1600.816284  -3943.333984     93.004196
    7199           0     -2821.733887   1269.954834  -3943.333984     89.432922
    7200           0     -2954.235352    920.576050  -3943.333496     92.606628
    7201           0     -3043.658203    557.772827  -3943.333496     98.174942
    7202           0     -3088.698730    186.833069  -3943.333740     93.420563
    7203           0      -186.834747   3088.698242  -3567.776123     37.007763
    7204           0      -557.777161   3043.657227  -3567.774658     43.940968
    7205           0      -920.581909   2954.233398  -3567.775146     53.376640
    7206           0     -1269.960815   2821.730957  -3567.775146     65.509270
    7207           0     -1600.821045   2648.082031  -3567.775635     78.811386
    7208           0     -1908.339478   2435.817383  -3567.776123     90.502472
    7209           0     -2188.032715   2188.030762  -3567.776123     97.485825
    7210           0     -2435.819824   1908.336426  -3567.776123     97.760010
    7211           0     -2648.084961   1600.816284  -3567.776611     92.700470
    7212           0     -2821.733887   1269.954834  -3567.777100     89.340240
    7213           0     -2954.235352    920.576050  -3567.777100     95.834152
    7214           0     -3043.658203    557.772827  -3567.777588    107.279732
    7215           0     -3088.698730    186.833069  -3567.778076    107.876518
    7216           0      -186.834747   3088.698242  -3192.224609     37.325603
    7217           0      -557.777100   3043.657227  -3192.227051     44.620697
    7218           0      -920.581787   2954.233398  -3192.226563     54.660625
    7219           0     -1269.960693   2821.730957  -3192.225830     67.473320
    7220           0     -1600.821045   2648.082031  -3192.225342     81.282700
    7221           0     -1908.339478   2435.817383  -3192.224854     93.064774
    7222           0     -2188.032715   2188.030762  -3192.224365     99.536064
    7223           0     -2435.819824   1908.336426  -3192.223877     98.714439
    7224           0     -2648.084961   1600.816284  -3192.223389     92.465813
    7225           0     -2821.733887   1269.954834  -3192.222900     89.341797
    7226           0     -2954.235352    920.576050  -3192.222412     99.303833
    7227           0     -3043.658203    557.772827  -3192.221924    116.700439
    7228           0     -3088.698730    186.833069  -3192.221436    123.112053
    7229           0      -186.834717   3088.698242  -2816.666016     37.871468
    7230           0      -557.776978   3043.657471  -2816.666016     45.510441
    7231           0      -920.581787   2954.233643  -2816.666016     56.151909
    7232           0     -1269.960693   2821.731201  -2816.666016     69.641335
    7233           0     -1600.821045   2648.082031  -2816.666016     83.948868
    7234           0     -1908.339478   2435.817383  -2816.666016     95.792305
    7235           0     -2188.032715   2188.030762  -2816.666016    101.728355
    7236           0     -2435.819824   1908.336426  -2816.666016     99.779236
    7237           0     -2648.084961   1600.816284  -2816.666016     92.279327
    7238           0     -2821.733887   1269.954834  -2816.666016     89.426750
    7239           0     -2954.235352    920.576050  -2816.666016    102.975777
    7240           0     -3043.658203    557.772827  -2816.666016    126.308922
    7241           0     -3088.698730    186.833069  -2816.665771    138.913559
    7242           0      -186.834686   3088.698242  -2441.107422     38.617386
    7243           0      -557.776978   3043.657471  -2441.104004     46.580330
    7244           0      -920.581665   2954.233643  -2441.104492     57.819759
    7245           0     -1269.960693   2821.731201  -2441.105469     71.985359
    7246           0     -1600.821045   2648.082031  -2441.106445     86.789482
    7247           0     -1908.339478   2435.817383  -2441.106934     98.701546
    7248           0     -2188.032715   2188.030762  -2441.107422    104.093803
    7249           0     -2435.819824   1908.336426  -2441.107910    100.969330
    7250           0     -2648.084961   1600.816284  -2441.108398     92.156197
    7251           0     -2821.733887   1269.954834  -2441.109375     89.567726
    7252           0     -2954.235352    920.576050  -2441.110352    106.775360
    7253           0     -3043.658203    557.772827  -2441.110840    136.004715
    7254           0     -3088.698730    186.833069  -2441.111328    155.038727
    7255           0      -186.834686   3088.698242  -2065.555420     39.557392
    7256           0      -557.776917   3043.657471  -2065.555908     47.821957
    7257           0      -920.581604   2954.233643  -2065.555420     59.643990
    7258           0     -1269.960693   2821.731201  -2065.555420     74.459938
    7259           0     -1600.821045   2648.082031  -2065.555908     89.730095
    7260           0     -1908.339355   2435.817383  -2065.555908    101.684280
    7261           0     -2188.032715   2188.030762  -2065.555420    106.502106
    7262           0     -2435.819824   1908.336426  -2065.554932    102.190826
    7263           0     -2648.084961   1600.816284  -2065.554932     92.032616
    7264           0     -2821.733887   1269.954834  -2065.555420     89.769325
    7265           0     -2954.235352    920.576050  -2065.555420    110.719841
    7266           0     -3043.658203    557.772827  -2065.554932    145.664948
    7267           0     -3088.698730    186.833069  -2065.554932    171.099731
    7268           0      -186.834656   3088.698242  -1689.999390     40.621193
    7269           0      -557.776917   3043.657471  -1690.000488     49.181946
    7270           0      -920.581604   2954.233643  -1690.000000     61.609039
    7271           0     -1269.960449   2821.731201  -1689.999390     77.132866
    7272           0     -1600.820801   2648.082031  -1689.999390     92.942902
    7273           0     -1908.339111   2435.817627  -1689.999390    104.998665
    7274           0     -2188.032715   2188.030762  -1689.999390    109.279327
    7275           0     -2435.819824   1908.336426  -1689.999390    103.711128
    7276           0     -2648.084961   1600.816284  -1689.999390     92.048653
    7277           0     -2821.733887   1269.954834  -1689.999390     89.971992
    7278           0     -2954.235352    920.576050  -1689.998901    114.765663
    7279           0     -3043.658203    557.772766  -1689.998413    155.673172
    7280           0     -3088.698730    186.832993  -1689.998413    187.956528
    7281           0      -186.834656   3088.698242  -1314.444336     41.878773
    7282           0      -557.776855   3043.657471  -1314.444824     50.675232
    7283           0      -920.581543   2954.233643  -1314.444824     63.606007
    7284           0     -1269.960449   2821.731201  -1314.444336     79.669212
    7285           0     -1600.820679   2648.082031  -1314.443848     95.831581
    7286           0     -1908.339111   2435.817627  -1314.443848    107.842880
    7287           0     -2188.032471   2188.030762  -1314.444336    111.517235
    7288           0     -2435.819824   1908.336426  -1314.444824    104.796539
    7289           0     -2648.084961   1600.816284  -1314.444824     91.871368
    7290           0     -2821.733887   1269.954834  -1314.444336     90.253761
    7291           0     -2954.235352    920.575928  -1314.443848    118.653099
    7292           0     -3043.658203    557.772644  -1314.443848    164.655197
    7293           0     -3088.698730    186.832916  -1314.443848    202.606339
    7294           0      -186.834625   3088.698242   -938.892883     43.176636
    7295           0      -557.776855   3043.657715   -938.897339     52.312477
    7296           0      -920.581482   2954.233643   -938.896851     65.973808
    7297           0     -1269.960327   2821.731201   -938.895874     82.945770
    7298           0     -1600.820679   2648.082031   -938.894897     99.860382
    7299           0     -1908.339111   2435.817627   -938.893921    112.136383
    7300           0     -2188.032471   2188.030762   -938.893433    115.291817
    7301           0     -2435.819824   1908.336426   -938.892944    107.094582
    7302           0     -2648.084961   1600.816284   -938.891846     92.131531
    7303           0     -2821.733887   1269.954834   -938.890869     90.488762
    7304           0     -2954.235352    920.575928   -938.889832    123.187866
    7305           0     -3043.658203    557.772522   -938.889343    176.271729
    7306           0     -3088.698730    186.832916   -938.888855    222.289413
    7307           0      -186.834610   3088.698486   -563.333313     44.602608
    7308           0      -557.776733   3043.657715   -563.335327     53.854290
    7309           0      -920.581421   2954.233643   -563.335327     67.865532
    7310           0     -1269.960327   2821.731201   -563.334839     85.189293
    7311           0     -1600.820679   2648.082031   -563.334839    102.297440
    7312           0     -1908.339111   2435.817627   -563.334351    114.426682
    7313           0     -2188.032471   2188.030762   -563.333801    117.026276
    7314           0     -2435.819824   1908.336426   -563.333313    107.861435
    7315           0     -2648.084961   1600.816284   -563.332825     92.031837
    7316           0     -2821.733887   1269.954834   -563.332825     91.126015
    7317           0     -2954.235352    920.575928   -563.332275    127.043571
    7318           0     -3043.658203    557.772522   -563.332336    183.760742
    7319           0     -3088.698730    186.832916   -563.332336    234.737976
    7320           0      -186.834595   3088.698486   -187.775253     45.689823
    7321           0      -557.776672   3043.657715   -187.773743     55.068306
    7322           0      -920.581360   2954.233643   -187.774246     69.261360
    7323           0     -1269.960205   2821.731445   -187.774246     86.737610
    7324           0     -1600.820557   2648.082520   -187.774750    103.842293
    7325           0     -1908.339111   2435.817871   -187.775253    115.770073
    7326           0     -2188.032471   2188.030762   -187.775253    117.836525
    7327           0     -2435.819824   1908.336426   -187.775253    107.827797
    7328           0     -2648.084961   1600.816284   -187.775757     90.724670
    7329           0     -2821.733887   1269.954834   -187.776260     89.343742
    7330           0     -2954.235352    920.575928   -187.776260    126.882858
    7331           0     -3043.658203    557.772522   -187.776764    187.226303
    7332           0     -3088.698730    186.832916   -187.777267    243.815948
    7333           0       186.795288  -3088.703125  -33612.22265    223.503265
    7334           0       557.659729  -3043.681396  -33612.22265    225.208832
    7335           0       920.396851  -2954.293213  -33612.22265    238.944000
    7336           0      1269.717041  -2821.843262  -33612.22265    262.989624
    7337           0      1600.529785  -2648.260498  -33612.22265    294.387238
    7338           0      1908.012695  -2436.076660  -33612.22265    328.032654
    7339           0      2187.682861  -2188.383789  -33612.22265    354.917542
    7340           0      2435.465332  -1908.792969  -33612.22265    357.241028
    7341           0      2647.746582  -1601.379883  -33612.22265    305.401611
    7342           0      2821.433838  -1270.626709  -33612.22265    193.244476
    7343           0       186.795776  -3088.703125  -33236.66796    231.813660
    7344           0       557.661011  -3043.681152  -33236.66796    232.880539
    7345           0       920.398804  -2954.292725  -33236.66796    245.737640
    7346           0      1269.719482  -2821.842285  -33236.66796    268.591644
    7347           0      1600.532349  -2648.258789  -33236.66796    298.252075
    7348           0      1908.015259  -2436.074463  -33236.66796    328.820374
    7349           0      2187.685059  -2188.381836  -33236.66796    350.416931
    7350           0      2435.466797  -1908.791260  -33236.66796    344.445282
    7351           0      2647.747559  -1601.378662  -33236.66796    290.188416
    7352           0      2821.434082  -1270.626343  -33236.66796    191.657074
    7353           0       186.795761  -3088.703125  -32861.11328    230.016266
    7354           0       557.661011  -3043.681152  -32861.11328    230.588745
    7355           0       920.398682  -2954.292725  -32861.11328    242.444000
    7356           0      1269.719482  -2821.842285  -32861.11328    263.997772
    7357           0      1600.532227  -2648.258789  -32861.11328    291.850220
    7358           0      1908.015137  -2436.074463  -32861.11328    320.307465
    7359           0      2187.684814  -2188.381836  -32861.11328    338.192810
    7360           0      2435.466553  -1908.791260  -32861.11328    328.594696
    7361           0      2647.747314  -1601.378662  -32861.11328    271.890045
    7362           0      2821.434082  -1270.626343  -32861.11328    181.269669
    7363           0       186.795761  -3088.703125  -32485.55664    226.607834
    7364           0       557.660950  -3043.681152  -32485.55664    226.543579
    7365           0       920.398621  -2954.292725  -32485.55664    236.977539
    7366           0      1269.719482  -2821.842285  -32485.55664    256.349030
    7367           0      1600.532227  -2648.259033  -32485.55664    281.379028
    7368           0      1908.015137  -2436.074463  -32485.55664    305.573486
    7369           0      2187.684814  -2188.381836  -32485.55664    317.588165
    7370           0      2435.466309  -1908.791260  -32485.55664    301.619171
    7371           0      2647.747314  -1601.378662  -32485.55664    247.406799
    7372           0      2821.434082  -1270.626343  -32485.55664    175.341736
    7373           0       186.795746  -3088.703125  -32110.00000    224.745773
    7374           0       557.660950  -3043.681152  -32110.00000    224.074814
    7375           0       920.398560  -2954.292725  -32110.00000    233.360062
    7376           0      1269.719360  -2821.842285  -32110.00000    251.065918
    7377           0      1600.532104  -2648.259277  -32110.00000    273.841309
    7378           0      1908.015015  -2436.074463  -32110.00000    294.907654
    7379           0      2187.684814  -2188.381836  -32110.00000    302.631287
    7380           0      2435.466309  -1908.791260  -32110.00000    283.032684
    7381           0      2647.747314  -1601.378662  -32110.00000    230.916168
    7382           0      2821.434082  -1270.626343  -32110.00000    172.898392
    7383           0       186.795731  -3088.703125  -31734.44531    222.360535
    7384           0       557.660889  -3043.681152  -31734.44531    221.089325
    7385           0       920.398560  -2954.292725  -31734.44531    229.075577
    7386           0      1269.719238  -2821.842529  -31734.44531    244.914917
    7387           0      1600.531982  -2648.259277  -31734.44531    265.140991
    7388           0      1908.015015  -2436.074707  -31734.44531    282.478607
    7389           0      2187.684570  -2188.381836  -31734.44531    285.296295
    7390           0      2435.466309  -1908.791382  -31734.44531    261.271118
    7391           0      2647.747314  -1601.378662  -31734.44531    213.968002
    7392           0      2821.434082  -1270.626343  -31734.44531    173.147125
    7393           0       186.795715  -3088.703125  -31358.88867    220.181381
    7394           0       557.660889  -3043.681152  -31358.88867    218.314789
    7395           0       920.398560  -2954.292969  -31358.88867    225.024124
    7396           0      1269.719238  -2821.842529  -31358.88867    239.032242
    7397           0      1600.531982  -2648.259277  -31358.88867    256.688873
    7398           0      1908.015015  -2436.074707  -31358.88867    270.433228
    7399           0      2187.684570  -2188.381836  -31358.88867    268.725525
    7400           0      2435.466309  -1908.791382  -31358.88867    242.133804
    7401           0      2647.747314  -1601.378906  -31358.88867    201.216324
    7402           0      2821.434082  -1270.626343  -31358.88867    175.391876
    7403           0       186.795700  -3088.703125  -30983.33398    218.002274
    7404           0       557.660828  -3043.681152  -30983.33398    215.511551
    7405           0       920.398499  -2954.292969  -30983.33398    220.984253
    7406           0      1269.719238  -2821.842529  -30983.33398    233.099503
    7407           0      1600.531982  -2648.259277  -30983.33398    248.084183
    7408           0      1908.014893  -2436.074707  -30983.33398    258.131409
    7409           0      2187.684570  -2188.382080  -30983.33398    252.113510
    7410           0      2435.466309  -1908.791382  -30983.33398    223.428574
    7411           0      2647.747314  -1601.378906  -30983.33398    190.733475
    7412           0      2821.434082  -1270.626465  -30983.33398    178.540848
    7413           0       186.795700  -3088.703125  -30607.77734    215.877197
    7414           0       557.660828  -3043.681152  -30607.77734    212.780640
    7415           0       920.398438  -2954.292969  -30607.77734    216.975662
    7416           0      1269.719238  -2821.842529  -30607.77734    227.167007
    7417           0      1600.531860  -2648.259277  -30607.77734    239.391632
    7418           0      1908.014893  -2436.074707  -30607.77734    245.708878
    7419           0      2187.684570  -2188.382080  -30607.77734    235.649063
    7420           0      2435.466309  -1908.791504  -30607.77734    206.394791
    7421           0      2647.747314  -1601.378906  -30607.77734    183.249878
    7422           0      2821.434082  -1270.626465  -30607.77734    181.830658
    7423           0       186.795685  -3088.703125  -30232.22265    213.792923
    7424           0       557.660767  -3043.681152  -30232.22265    210.087479
    7425           0       920.398376  -2954.292969  -30232.22265    213.014786
    7426           0      1269.719238  -2821.842529  -30232.22265    221.218994
    7427           0      1600.531860  -2648.259277  -30232.22265    230.599533
    7428           0      1908.014893  -2436.074707  -30232.22265    233.176834
    7429           0      2187.684570  -2188.382080  -30232.22265    219.557693
    7430           0      2435.466309  -1908.791504  -30232.22265    190.766846
    7431           0      2647.747314  -1601.378906  -30232.22265    178.114853
    7432           0      2821.434082  -1270.626465  -30232.22265    184.663757
    7433           0       186.795670  -3088.703125  -29856.66796    211.758896
    7434           0       557.660706  -3043.681152  -29856.66796    207.452896
    7435           0       920.398315  -2954.292969  -29856.66796    209.073013
    7436           0      1269.718994  -2821.842529  -29856.66796    215.237885
    7437           0      1600.531738  -2648.259277  -29856.66796    221.685959
    7438           0      1908.014648  -2436.074707  -29856.66796    220.577057
    7439           0      2187.684570  -2188.382324  -29856.66796    203.801270
    7440           0      2435.466309  -1908.791748  -29856.66796    176.909195
    7441           0      2647.747314  -1601.378906  -29856.66796    175.106262
    7442           0      2821.434082  -1270.626465  -29856.66796    186.717560
    7443           0       186.795654  -3088.703125  -29481.10937    209.775040
    7444           0       557.660706  -3043.681152  -29481.10937    204.862015
    7445           0       920.398315  -2954.292969  -29481.10937    205.165695
    7446           0      1269.718994  -2821.842529  -29481.10937    209.214264
    7447           0      1600.531738  -2648.259277  -29481.10937    212.662643
    7448           0      1908.014648  -2436.074951  -29481.10937    207.952393
    7449           0      2187.684570  -2188.382324  -29481.10937    188.606201
    7450           0      2435.466309  -1908.791748  -29481.10937    164.850952
    7451           0      2647.747314  -1601.378906  -29481.10937    173.732925
    7452           0      2821.434082  -1270.626465  -29481.10937    187.800903
    7453           0       186.795639  -3088.703125  -29105.55468    207.845016
    7454           0       557.660706  -3043.681152  -29105.55468    202.325424
    7455           0       920.398315  -2954.292969  -29105.55468    201.271957
    7456           0      1269.718872  -2821.842529  -29105.55468    203.139053
    7457           0      1600.531616  -2648.259277  -29105.55468    203.535873
    7458           0      1908.014648  -2436.075195  -29105.55468    195.371506
    7459           0      2187.684570  -2188.382324  -29105.55468    173.989182
    7460           0      2435.466309  -1908.791748  -29105.55468    154.736832
    7461           0      2647.747070  -1601.379028  -29105.55468    173.614578
    7462           0      2821.434082  -1270.626465  -29105.55468    187.885330
    7463           0       186.795639  -3088.703125  -28729.99804    205.970642
    7464           0       557.660645  -3043.681152  -28729.99804    199.833237
    7465           0       920.398193  -2954.292969  -28729.99804    197.391479
    7466           0      1269.718872  -2821.842529  -28729.99804    197.001633
    7467           0      1600.531494  -2648.259277  -28729.99804    194.332932
    7468           0      1908.014648  -2436.075195  -28729.99804    182.873703
    7469           0      2187.684326  -2188.382324  -28729.99804    160.113159
    7470           0      2435.466309  -1908.791748  -28729.99804    146.585388
    7471           0      2647.747070  -1601.379028  -28729.99804    174.370071
    7472           0      2821.434082  -1270.626465  -28729.99804    186.987045
    7473           0       186.795639  -3088.703125  -28354.44335    204.153809
    7474           0       557.660645  -3043.681152  -28354.44335    197.388245
    7475           0       920.398193  -2954.292969  -28354.44335    193.508316
    7476           0      1269.718750  -2821.842529  -28354.44335    190.804123
    7477           0      1600.531494  -2648.259277  -28354.44335    185.077301
    7478           0      1908.014404  -2436.075195  -28354.44335    170.532883
    7479           0      2187.684326  -2188.382324  -28354.44335    147.041656
    7480           0      2435.466309  -1908.791748  -28354.44335    140.401230
    7481           0      2647.747070  -1601.379028  -28354.44335    175.692093
    7482           0      2821.434082  -1270.626465  -28354.44335    185.201355
    7483           0       186.795624  -3088.703125  -27978.88867    202.396103
    7484           0       557.660645  -3043.681152  -27978.88867    194.980820
    7485           0       920.398193  -2954.292969  -27978.88867    189.617615
    7486           0      1269.718750  -2821.842529  -27978.88867    184.550919
    7487           0      1600.531494  -2648.259277  -27978.88867    175.805359
    7488           0      1908.014404  -2436.075195  -27978.88867    158.384903
    7489           0      2187.684326  -2188.382324  -27978.88867    134.913498
    7490           0      2435.466309  -1908.791748  -27978.88867    136.090866
    7491           0      2647.747070  -1601.379028  -27978.88867    177.344345
    7492           0      2821.434082  -1270.626465  -27978.88867    182.625137
    7493           0       186.795609  -3088.703125  -27603.33398    200.696960
    7494           0       557.660583  -3043.681152  -27603.33398    192.607864
    7495           0       920.398071  -2954.292969  -27603.33398    185.708527
    7496           0      1269.718750  -2821.842529  -27603.33398    178.251221
    7497           0      1600.531494  -2648.259277  -27603.33398    166.550903
    7498           0      1908.014404  -2436.075195  -27603.33398    146.496124
    7499           0      2187.684326  -2188.382324  -27603.33398    123.821640
    7500           0      2435.466309  -1908.791748  -27603.33398    133.517609
    7501           0      2647.747070  -1601.379150  -27603.33398    179.142334
    7502           0      2821.434082  -1270.626465  -27603.33398    179.387009
    7503           0       186.795609  -3088.703125  -27227.77734    199.055435
    7504           0       557.660583  -3043.681152  -27227.77734    190.258957
    7505           0       920.398010  -2954.292969  -27227.77734    181.777161
    7506           0      1269.718750  -2821.842529  -27227.77734    171.921249
    7507           0      1600.531372  -2648.259521  -27227.77734    157.352112
    7508           0      1908.014404  -2436.075195  -27227.77734    134.904510
    7509           0      2187.684082  -2188.382324  -27227.77734    113.902260
    7510           0      2435.466309  -1908.791870  -27227.77734    132.474289
    7511           0      2647.747070  -1601.379150  -27227.77734    180.961197
    7512           0      2821.434082  -1270.626465  -27227.77734    175.599609
    7513           0       186.795593  -3088.703125  -26852.22265    197.467545
    7514           0       557.660522  -3043.681152  -26852.22265    187.928253
    7515           0       920.397949  -2954.292969  -26852.22265    177.819229
    7516           0      1269.718506  -2821.842773  -26852.22265    165.579132
    7517           0      1600.531372  -2648.259766  -26852.22265    148.244156
    7518           0      1908.014404  -2436.075195  -26852.22265    123.666862
    7519           0      2187.684082  -2188.382568  -26852.22265    105.270485
    7520           0      2435.466064  -1908.791992  -26852.22265    132.732437
    7521           0      2647.747070  -1601.379150  -26852.22265    182.709122
    7522           0      2821.434082  -1270.626465  -26852.22265    171.384659
    7523           0       186.795578  -3088.703125  -26476.66796    195.927551
    7524           0       557.660522  -3043.681152  -26476.66796    185.605743
    7525           0       920.397949  -2954.292969  -26476.66796    173.837097
    7526           0      1269.718506  -2821.842773  -26476.66796    159.244019
    7527           0      1600.531250  -2648.259766  -26476.66796    139.261536
    7528           0      1908.014404  -2436.075195  -26476.66796    112.824875
    7529           0      2187.684082  -2188.382568  -26476.66796     98.050583
    7530           0      2435.466064  -1908.791992  -26476.66796    134.042038
    7531           0      2647.747070  -1601.379272  -26476.66796    184.334747
    7532           0      2821.434082  -1270.626465  -26476.66796    166.843033
    7533           0       186.795563  -3088.703125  -26101.11132    194.428864
    7534           0       557.660400  -3043.681152  -26101.11132    183.285339
    7535           0       920.397949  -2954.292969  -26101.11132    169.831863
    7536           0      1269.718506  -2821.842773  -26101.11132    152.943359
    7537           0      1600.531128  -2648.259766  -26101.11132    130.440994
    7538           0      1908.014160  -2436.075439  -26101.11132    102.436722
    7539           0      2187.684082  -2188.382568  -26101.11132     92.334930
    7540           0      2435.466064  -1908.791992  -26101.11132    136.169785
    7541           0      2647.747070  -1601.379272  -26101.11132    185.801605
    7542           0      2821.434082  -1270.626465  -26101.11132    162.076508
    7543           0       186.795547  -3088.703125  -25725.55468    192.961792
    7544           0       557.660400  -3043.681396  -25725.55468    180.958328
    7545           0       920.397827  -2954.292969  -25725.55468    165.811203
    7546           0      1269.718384  -2821.842773  -25725.55468    146.698578
    7547           0      1600.531006  -2648.259766  -25725.55468    121.814278
    7548           0      1908.014038  -2436.075684  -25725.55468     92.553780
    7549           0      2187.683838  -2188.382813  -25725.55468     88.181160
    7550           0      2435.465820  -1908.791992  -25725.55468    138.901184
    7551           0      2647.747070  -1601.379272  -25725.55468    187.096970
    7552           0      2821.434082  -1270.626465  -25725.55468    157.165649
    7553           0       186.795547  -3088.703125  -25349.99804    191.515778
    7554           0       557.660400  -3043.681396  -25349.99804    178.619598
    7555           0       920.397827  -2954.292969  -25349.99804    161.780090
    7556           0      1269.718384  -2821.842773  -25349.99804    140.534454
    7557           0      1600.531006  -2648.259766  -25349.99804    113.413795
    7558           0      1908.014038  -2436.075684  -25349.99804     83.244339
    7559           0      2187.683838  -2188.382813  -25349.99804     85.577248
    7560           0      2435.465820  -1908.791992  -25349.99804    142.054703
    7561           0      2647.747070  -1601.379395  -25349.99804    188.215805
    7562           0      2821.434082  -1270.626465  -25349.99804    152.187424
    7563           0       186.795532  -3088.703125  -24974.44335    190.078766
    7564           0       557.660400  -3043.681396  -24974.44335    176.262283
    7565           0       920.397827  -2954.292969  -24974.44335    157.750137
    7566           0      1269.718384  -2821.842773  -24974.44335    134.475647
    7567           0      1600.531006  -2648.259766  -24974.44335    105.271011
    7568           0      1908.014038  -2436.075684  -24974.44335     74.584869
    7569           0      2187.683838  -2188.382813  -24974.44335     84.441429
    7570           0      2435.465820  -1908.791992  -24974.44335    145.477325
    7571           0      2647.747070  -1601.379395  -24974.44335    189.164139
    7572           0      2821.434082  -1270.626465  -24974.44335    147.202026
    7573           0       186.795517  -3088.703125  -24598.88867    188.638107
    7574           0       557.660339  -3043.681396  -24598.88867    173.883011
    7575           0       920.397705  -2954.292969  -24598.88867    153.729630
    7576           0      1269.718262  -2821.842773  -24598.88867    128.545456
    7577           0      1600.531006  -2648.259766  -24598.88867     97.418785
    7578           0      1908.014038  -2436.075684  -24598.88867     66.673164
    7579           0      2187.683838  -2188.382813  -24598.88867     84.618034
    7580           0      2435.465820  -1908.791992  -24598.88867    149.048676
    7581           0      2647.747070  -1601.379395  -24598.88867    189.950928
    7582           0      2821.434082  -1270.626465  -24598.88867    142.264893
    7583           0       186.795502  -3088.703125  -24223.33398    187.180862
    7584           0       557.660339  -3043.681396  -24223.33398    171.478470
    7585           0       920.397705  -2954.292969  -24223.33398    149.728439
    7586           0      1269.718262  -2821.842773  -24223.33398    122.764389
    7587           0      1600.531006  -2648.259766  -24223.33398     89.892235
    7588           0      1908.013916  -2436.075684  -24223.33398     59.628826
    7589           0      2187.683838  -2188.382813  -24223.33398     85.903664
    7590           0      2435.465820  -1908.791992  -24223.33398    152.672592
    7591           0      2647.747070  -1601.379395  -24223.33398    190.589661
    7592           0      2821.434082  -1270.626465  -24223.33398    137.417969
    7593           0       186.795486  -3088.703125  -23847.77734    185.693756
    7594           0       557.660278  -3043.681396  -23847.77734    169.044830
    7595           0       920.397705  -2954.292969  -23847.77734    145.758087
    7596           0      1269.718140  -2821.842773  -23847.77734    117.156906
    7597           0      1600.530884  -2648.259766  -23847.77734     82.725571
    7598           0      1908.013794  -2436.075684  -23847.77734     53.596645
    7599           0      2187.683594  -2188.382813  -23847.77734     88.072388
    7600           0      2435.465820  -1908.792236  -23847.77734    156.275940
    7601           0      2647.747070  -1601.379395  -23847.77734    191.094696
    7602           0      2821.434082  -1270.626465  -23847.77734    132.698868
    7603           0       186.795486  -3088.703125  -23472.22265    184.163788
    7604           0       557.660278  -3043.681396  -23472.22265    166.580231
    7605           0       920.397583  -2954.292969  -23472.22265    141.828018
    7606           0      1269.718018  -2821.842773  -23472.22265    111.741791
    7607           0      1600.530762  -2648.260010  -23472.22265     75.960167
    7608           0      1908.013672  -2436.075684  -23472.22265     48.738949
    7609           0      2187.683594  -2188.382813  -23472.22265     90.904106
    7610           0      2435.465820  -1908.792236  -23472.22265    159.803009
    7611           0      2647.747070  -1601.379395  -23472.22265    191.481110
    7612           0      2821.434082  -1270.626465  -23472.22265    128.134857
    7613           0       186.795486  -3088.703125  -23096.66601    182.577942
    7614           0       557.660278  -3043.681396  -23096.66601    164.081970
    7615           0       920.397583  -2954.292969  -23096.66601    137.947403
    7616           0      1269.718018  -2821.842773  -23096.66601    106.538986
    7617           0      1600.530762  -2648.260010  -23096.66601     69.638168
    7618           0      1908.013672  -2436.075684  -23096.66601     45.208679
    7619           0      2187.683594  -2188.382813  -23096.66601     94.198120
    7620           0      2435.465820  -1908.792236  -23096.66601    163.212067
    7621           0      2647.747070  -1601.379395  -23096.66601    191.763870
    7622           0      2821.434082  -1270.626465  -23096.66601    123.749474
    7623           0       186.795471  -3088.703125  -22721.11132    180.925125
    7624           0       557.660217  -3043.681396  -22721.11132    161.548920
    7625           0       920.397583  -2954.292969  -22721.11132    134.126068
    7626           0      1269.717896  -2821.842773  -22721.11132    101.567734
    7627           0      1600.530640  -2648.260010  -22721.11132     63.812366
    7628           0      1908.013672  -2436.075684  -22721.11132     43.103294
    7629           0      2187.683594  -2188.382813  -22721.11132     97.790421
    7630           0      2435.465820  -1908.792358  -22721.11132    166.473434
    7631           0      2647.747070  -1601.379395  -22721.11132    191.955948
    7632           0      2821.434082  -1270.626465  -22721.11132    119.559654
    7633           0       186.795456  -3088.703125  -22345.55468    179.193420
    7634           0       557.660156  -3043.681396  -22345.55468    158.978851
    7635           0       920.397400  -2954.292969  -22345.55468    130.371384
    7636           0      1269.717896  -2821.842773  -22345.55468     96.845070
    7637           0      1600.530518  -2648.260010  -22345.55468     58.537075
    7638           0      1908.013550  -2436.075684  -22345.55468     42.412872
    7639           0      2187.683594  -2188.383057  -22345.55468    101.536453
    7640           0      2435.465820  -1908.792358  -22345.55468    169.567261
    7641           0      2647.747070  -1601.379517  -22345.55468    192.071213
    7642           0      2821.434082  -1270.626465  -22345.55468    115.578217
    7643           0       186.795441  -3088.703125  -21970.00000    177.372406
    7644           0       557.660156  -3043.681396  -21970.00000    156.370117
    7645           0       920.397400  -2954.292969  -21970.00000    126.690269
    7646           0      1269.717773  -2821.842773  -21970.00000     92.386642
    7647           0      1600.530518  -2648.260010  -21970.00000     53.872387
    7648           0      1908.013550  -2436.075684  -21970.00000     42.994831
    7649           0      2187.683594  -2188.383057  -21970.00000    105.328194
    7650           0      2435.465576  -1908.792480  -21970.00000    172.472504
    7651           0      2647.747070  -1601.379517  -21970.00000    192.123489
    7652           0      2821.434082  -1270.626465  -21970.00000    111.813881
    7653           0       186.795425  -3088.703125  -21594.44335    175.452057
    7654           0       557.660156  -3043.681396  -21594.44335    153.720459
    7655           0       920.397400  -2954.293213  -21594.44335    123.088478
    7656           0      1269.717773  -2821.843018  -21594.44335     88.207787
    7657           0      1600.530396  -2648.260254  -21594.44335     49.881630
    7658           0      1908.013428  -2436.076172  -21594.44335     44.607899
    7659           0      2187.683594  -2188.383301  -21594.44335    109.084274
    7660           0      2435.465576  -1908.792480  -21594.44335    175.183060
    7661           0      2647.747070  -1601.379639  -21594.44335    192.121323
    7662           0      2821.434082  -1270.626587  -21594.44335    108.272102
    7663           0       186.795425  -3088.703125  -21218.88867    173.423279
    7664           0       557.660034  -3043.681396  -21218.88867    151.028183
    7665           0       920.397400  -2954.293213  -21218.88867    119.571381
    7666           0      1269.717773  -2821.843018  -21218.88867     84.319817
    7667           0      1600.530396  -2648.260254  -21218.88867     46.619701
    7668           0      1908.013428  -2436.076172  -21218.88867     46.973770
    7669           0      2187.683594  -2188.383301  -21218.88867    112.735237
    7670           0      2435.465576  -1908.792480  -21218.88867    177.690338
    7671           0      2647.746826  -1601.379639  -21218.88867    192.075150
    7672           0      2821.434082  -1270.626709  -21218.88867    104.956245
    7673           0       186.795410  -3088.703125  -20843.33203    171.278000
    7674           0       557.660034  -3043.681396  -20843.33203    148.290421
    7675           0       920.397339  -2954.293213  -20843.33203    116.141975
    7676           0      1269.717773  -2821.843018  -20843.33203     80.734863
    7677           0      1600.530396  -2648.260254  -20843.33203     44.131508
    7678           0      1908.013428  -2436.076172  -20843.33203     49.835888
    7679           0      2187.683594  -2188.383301  -20843.33203    116.233635
    7680           0      2435.465576  -1908.792480  -20843.33203    179.990097
    7681           0      2647.746826  -1601.379639  -20843.33203    191.992737
    7682           0      2821.434082  -1270.626709  -20843.33203    101.867592
    7683           0       186.795395  -3088.703125  -20467.77734    169.007813
    7684           0       557.660034  -3043.681396  -20467.77734    145.504959
    7685           0       920.397217  -2954.293213  -20467.77734    112.803810
    7686           0      1269.717651  -2821.843018  -20467.77734     77.459953
    7687           0      1600.530273  -2648.260254  -20467.77734     42.428040
    7688           0      1908.013306  -2436.076172  -20467.77734     52.978394
    7689           0      2187.683350  -2188.383301  -20467.77734    119.540230
    7690           0      2435.465576  -1908.792480  -20467.77734    182.080246
    7691           0      2647.746826  -1601.379639  -20467.77734    191.881561
    7692           0      2821.434082  -1270.626709  -20467.77734     99.005714
    7693           0       186.795380  -3088.703125  -20092.22265    166.606049
    7694           0       557.659973  -3043.681396  -20092.22265    142.669113
    7695           0       920.397217  -2954.293213  -20092.22265    109.558876
    7696           0      1269.717529  -2821.843018  -20092.22265     74.498825
    7697           0      1600.530273  -2648.260254  -20092.22265     41.483601
    7698           0      1908.013062  -2436.076172  -20092.22265     56.236790
    7699           0      2187.683350  -2188.383301  -20092.22265    122.622887
    7700           0      2435.465576  -1908.792725  -20092.22265    183.960800
    7701           0      2647.746826  -1601.379761  -20092.22265    191.746964
    7702           0      2821.434082  -1270.626709  -20092.22265     96.369537
    7703           0       186.795364  -3088.703125  -19716.66796    164.065506
    7704           0       557.659973  -3043.681396  -19716.66796    139.779114
    7705           0       920.397217  -2954.293213  -19716.66796    106.407059
    7706           0      1269.717529  -2821.843018  -19716.66796     71.853729
    7707           0      1600.530151  -2648.260254  -19716.66796     41.234467
    7708           0      1908.013062  -2436.076172  -19716.66796     59.493187
    7709           0      2187.683105  -2188.383301  -19716.66796    125.462547
    7710           0      2435.465576  -1908.792725  -19716.66796    185.630188
    7711           0      2647.746826  -1601.379761  -19716.66796    191.594696
    7712           0      2821.434082  -1270.626709  -19716.66796     93.957123
    7713           0       186.795364  -3088.703125  -19341.11132    161.380844
    7714           0       557.659973  -3043.681396  -19341.11132    136.833145
    7715           0       920.397095  -2954.293213  -19341.11132    103.349487
    7716           0      1269.717529  -2821.843018  -19341.11132     69.520782
    7717           0      1600.530029  -2648.260254  -19341.11132     41.581833
    7718           0      1908.013062  -2436.076172  -19341.11132     62.656055
    7719           0      2187.683105  -2188.383301  -19341.11132    128.039291
    7720           0      2435.465332  -1908.792725  -19341.11132    187.088608
    7721           0      2647.746826  -1601.379761  -19341.11132    191.428711
    7722           0      2821.434082  -1270.626709  -19341.11132     91.767349
    7723           0       186.795349  -3088.703125  -18965.55468    158.546082
    7724           0       557.659912  -3043.681396  -18965.55468    133.827118
    7725           0       920.397095  -2954.293213  -18965.55468    100.384766
    7726           0      1269.717407  -2821.843018  -18965.55468     67.492813
    7727           0      1600.530029  -2648.260254  -18965.55468     42.406685
    7728           0      1908.012939  -2436.076416  -18965.55468     65.662918
    7729           0      2187.683105  -2188.383545  -18965.55468    130.341248
    7730           0      2435.465332  -1908.792725  -18965.55468    188.336075
    7731           0      2647.746826  -1601.379761  -18965.55468    191.252258
    7732           0      2821.434082  -1270.626709  -18965.55468     89.798622
    7733           0       186.795334  -3088.703125  -18589.99804    155.556305
    7734           0       557.659912  -3043.681396  -18589.99804    130.758163
    7735           0       920.397034  -2954.293213  -18589.99804     97.510017
    7736           0      1269.717285  -2821.843262  -18589.99804     65.755745
    7737           0      1600.530029  -2648.260498  -18589.99804     43.586891
    7738           0      1908.012939  -2436.076416  -18589.99804     68.466362
    7739           0      2187.683105  -2188.383545  -18589.99804    132.357193
    7740           0      2435.465332  -1908.792725  -18589.99804    189.373306
    7741           0      2647.746826  -1601.379883  -18589.99804    191.067703
    7742           0      2821.434082  -1270.626709  -18589.99804     88.050079
    7743           0       186.795334  -3088.703125  -18214.44531    152.406876
    7744           0       557.659912  -3043.681396  -18214.44531    127.622322
    7745           0       920.396973  -2954.293213  -18214.44531     94.723831
    7746           0      1269.717285  -2821.843262  -18214.44531     64.294281
    7747           0      1600.530029  -2648.260498  -18214.44531     45.007477
    7748           0      1908.012939  -2436.076416  -18214.44531     71.032433
    7749           0      2187.683105  -2188.383545  -18214.44531    134.079315
    7750           0      2435.465332  -1908.792725  -18214.44531    190.199890
    7751           0      2647.746582  -1601.379883  -18214.44531    190.876678
    7752           0      2821.434082  -1270.626709  -18214.44531     86.522064
    7753           0       186.795334  -3088.703125  -17838.88867    149.093933
    7754           0       557.659851  -3043.681396  -17838.88867    124.416664
    7755           0       920.396973  -2954.293213  -17838.88867     92.021614
    7756           0      1269.717285  -2821.843262  -17838.88867     63.084873
    7757           0      1600.529907  -2648.260498  -17838.88867     46.569263
    7758           0      1908.012695  -2436.076416  -17838.88867     73.335938
    7759           0      2187.682861  -2188.383789  -17838.88867    135.500336
    7760           0      2435.465332  -1908.792847  -17838.88867    190.815613
    7761           0      2647.746582  -1601.379883  -17838.88867    190.680359
    7762           0      2821.434082  -1270.626709  -17838.88867     85.215805
    7763           0       186.795319  -3088.703125  -17463.33203    145.614380
    7764           0       557.659790  -3043.681396  -17463.33203    121.138115
    7765           0       920.396851  -2954.293213  -17463.33203     89.396851
    7766           0      1269.717285  -2821.843262  -17463.33203     62.101330
    7767           0      1600.529785  -2648.260498  -17463.33203     48.189350
    7768           0      1908.012695  -2436.076416  -17463.33203     75.357887
    7769           0      2187.682861  -2188.383789  -17463.33203    136.614777
    7770           0      2435.465332  -1908.792847  -17463.33203    191.219788
    7771           0      2647.746582  -1601.379883  -17463.33203    190.478607
    7772           0      2821.434082  -1270.626709  -17463.33203     84.134048
    7773           0       186.795303  -3088.703125  -17087.77734    141.965439
    7774           0       557.659729  -3043.681396  -17087.77734    117.783089
    7775           0       920.396790  -2954.293213  -17087.77734     86.845779
    7776           0      1269.717163  -2821.843262  -17087.77734     61.315895
    7777           0      1600.529785  -2648.260498  -17087.77734     49.800858
    7778           0      1908.012695  -2436.076416  -17087.77734     77.085022
    7779           0      2187.682861  -2188.383789  -17087.77734    137.416901
    7780           0      2435.465332  -1908.792847  -17087.77734    191.410431
    7781           0      2647.746582  -1601.379883  -17087.77734    190.271851
    7782           0      2821.434082  -1270.626709  -17087.77734     83.280960
    7783           0       186.795288  -3088.703125  -16712.22265    138.145401
    7784           0       557.659729  -3043.681396  -16712.22265    114.349228
    7785           0       920.396790  -2954.293457  -16712.22265     84.360107
    7786           0      1269.717041  -2821.843262  -16712.22265     60.697346
    7787           0      1600.529663  -2648.260498  -16712.22265     51.350021
    7788           0      1908.012695  -2436.076660  -16712.22265     78.506454
    7789           0      2187.682617  -2188.383789  -16712.22265    137.903046
    7790           0      2435.465332  -1908.792969  -16712.22265    191.386765
    7791           0      2647.746582  -1601.379883  -16712.22265    190.058044
    7792           0      2821.434082  -1270.626709  -16712.22265     82.661728
    7793           0       186.795273  -3088.703125  -16336.66601    134.152634
    7794           0       557.659668  -3043.681641  -16336.66601    110.833160
    7795           0       920.396790  -2954.293457  -16336.66601     81.931694
    7796           0      1269.717041  -2821.843262  -16336.66601     60.213390
    7797           0      1600.529541  -2648.260742  -16336.66601     52.796585
    7798           0      1908.012573  -2436.076660  -16336.66601     79.616020
    7799           0      2187.682617  -2188.383789  -16336.66601    138.065628
    7800           0      2435.465332  -1908.792969  -16336.66601    191.143860
    7801           0      2647.746582  -1601.380005  -16336.66601    189.836761
    7802           0      2821.434082  -1270.626709  -16336.66601     82.283539
    7803           0       186.795273  -3088.703125  -15961.11035    129.987823
    7804           0       557.659668  -3043.681641  -15961.11035    107.233528
    7805           0       920.396790  -2954.293457  -15961.11035     79.553391
    7806           0      1269.717041  -2821.843262  -15961.11035     59.829117
    7807           0      1600.529541  -2648.260742  -15961.11035     54.108654
    7808           0      1908.012451  -2436.076660  -15961.11035     80.404694
    7809           0      2187.682617  -2188.383789  -15961.11035    137.907532
    7810           0      2435.465332  -1908.792969  -15961.11035    190.680923
    7811           0      2647.746582  -1601.380005  -15961.11035    189.605423
    7812           0      2821.434082  -1270.626709  -15961.11035     82.154007
    7813           0       186.795258  -3088.703125  -15585.55468    125.651215
    7814           0       557.659668  -3043.681641  -15585.55468    103.548256
    7815           0       920.396729  -2954.293457  -15585.55468     77.214813
    7816           0      1269.717041  -2821.843262  -15585.55468     59.513821
    7817           0      1600.529541  -2648.260742  -15585.55468     55.260723
    7818           0      1908.012451  -2436.076660  -15585.55468     80.876717
    7819           0      2187.682617  -2188.384033  -15585.55468    137.417740
    7820           0      2435.465088  -1908.792969  -15585.55468    189.985214
    7821           0      2647.746582  -1601.380005  -15585.55468    189.360657
    7822           0      2821.434082  -1270.626709  -15585.55468     82.282654
    7823           0       186.795242  -3088.703125  -15209.99902    121.143997
    7824           0       557.659607  -3043.681641  -15209.99902     99.775528
    7825           0       920.396606  -2954.293457  -15209.99902     74.905670
    7826           0      1269.716919  -2821.843262  -15209.99902     59.236103
    7827           0      1600.529541  -2648.260742  -15209.99902     56.233616
    7828           0      1908.012451  -2436.076660  -15209.99902     81.013222
    7829           0      2187.682617  -2188.384033  -15209.99902    136.594604
    7830           0      2435.465088  -1908.793213  -15209.99902    189.073502
    7831           0      2647.746582  -1601.380005  -15209.99902    189.098434
    7832           0      2821.434082  -1270.626709  -15209.99902     82.677971
    7833           0       186.795227  -3088.703125  -14834.44335    116.468567
    7834           0       557.659607  -3043.681641  -14834.44335     95.914101
    7835           0       920.396606  -2954.293457  -14834.44335     72.616554
    7836           0      1269.716797  -2821.843750  -14834.44335     58.964043
    7837           0      1600.529541  -2648.260742  -14834.44335     57.015678
    7838           0      1908.012451  -2436.076660  -14834.44335     80.834854
    7839           0      2187.682617  -2188.384033  -14834.44335    135.419769
    7840           0      2435.464844  -1908.793213  -14834.44335    187.913727
    7841           0      2647.746582  -1601.380127  -14834.44335    188.820053
    7842           0      2821.434082  -1270.626709  -14834.44335     83.352280
    7843           0       186.795212  -3088.703125  -14458.88867    111.629433
    7844           0       557.659546  -3043.681641  -14458.88867     91.964111
    7845           0       920.396606  -2954.293457  -14458.88867     70.332565
    7846           0      1269.716797  -2821.843750  -14458.88867     58.678421
    7847           0      1600.529419  -2648.260742  -14458.88867     57.587055
    7848           0      1908.012329  -2436.076660  -14458.88867     80.316025
    7849           0      2187.682617  -2188.384033  -14458.88867    133.935287
    7850           0      2435.464844  -1908.793213  -14458.88867    186.527527
    7851           0      2647.746582  -1601.380127  -14458.88867    188.505508
    7852           0      2821.434082  -1270.626709  -14458.88867     84.308479
    7853           0       186.795212  -3088.703125  -14083.33300    106.630447
    7854           0       557.659546  -3043.681641  -14083.33300     87.924767
    7855           0       920.396545  -2954.293457  -14083.33300     68.046112
    7856           0      1269.716797  -2821.843750  -14083.33300     58.337704
    7857           0      1600.529297  -2648.260742  -14083.33300     57.961411
    7858           0      1908.012207  -2436.076904  -14083.33300     79.486053
    7859           0      2187.682617  -2188.384033  -14083.33300    132.052155
    7860           0      2435.464844  -1908.793213  -14083.33300    184.857941
    7861           0      2647.746582  -1601.380127  -14083.33300    188.179169
    7862           0      2821.434082  -1270.626709  -14083.33300     85.564934
    7863           0       186.795197  -3088.703125  -13707.77734    101.478119
    7864           0       557.659546  -3043.681641  -13707.77734     83.797249
    7865           0       920.396484  -2954.293457  -13707.77734     65.744652
    7866           0      1269.716675  -2821.843750  -13707.77734     57.925282
    7867           0      1600.529297  -2648.260742  -13707.77734     58.120975
    7868           0      1908.012085  -2436.076904  -13707.77734     78.330215
    7869           0      2187.682373  -2188.384277  -13707.77734    129.818939
    7870           0      2435.464844  -1908.793213  -13707.77734    182.922745
    7871           0      2647.746582  -1601.380127  -13707.77734    187.814789
    7872           0      2821.434082  -1270.626709  -13707.77734     87.125702
    7873           0       186.795181  -3088.703125  -13332.22168     96.179207
    7874           0       557.659424  -3043.681641  -13332.22168     79.583511
    7875           0       920.396484  -2954.293457  -13332.22168     63.413910
    7876           0      1269.716675  -2821.843750  -13332.22168     57.428692
    7877           0      1600.529175  -2648.260742  -13332.22168     58.047630
    7878           0      1908.012085  -2436.077148  -13332.22168     76.837738
    7879           0      2187.682373  -2188.384277  -13332.22168    127.269798
    7880           0      2435.464844  -1908.793335  -13332.22168    180.760025
    7881           0      2647.746582  -1601.380249  -13332.22168    187.386536
    7882           0      2821.434082  -1270.626709  -13332.22168     88.988960
    7883           0       186.795181  -3088.703125  -12956.66796     90.740639
    7884           0       557.659424  -3043.681641  -12956.66796     75.284431
    7885           0       920.396362  -2954.293457  -12956.66796     61.047928
    7886           0      1269.716553  -2821.843750  -12956.66796     56.812447
    7887           0      1600.529053  -2648.260742  -12956.66796     57.761642
    7888           0      1908.012085  -2436.077148  -12956.66796     75.039948
    7889           0      2187.682373  -2188.384277  -12956.66796    124.319496
    7890           0      2435.464844  -1908.793457  -12956.66796    178.291489
    7891           0      2647.746582  -1601.380249  -12956.66796    186.909485
    7892           0      2821.434082  -1270.626709  -12956.66796     91.170876
    7893           0       186.795166  -3088.703125  -12581.11328     85.173492
    7894           0       557.659424  -3043.681641  -12581.11328     70.904915
    7895           0       920.396362  -2954.293457  -12581.11328     58.634102
    7896           0      1269.716553  -2821.843750  -12581.11328     56.068928
    7897           0      1600.529053  -2648.260742  -12581.11328     57.252731
    7898           0      1908.011963  -2436.077148  -12581.11328     72.914772
    7899           0      2187.682129  -2188.384521  -12581.11328    121.017281
    7900           0      2435.464844  -1908.793457  -12581.11328    175.548660
    7901           0      2647.746582  -1601.380249  -12581.11328    186.361252
    7902           0      2821.434082  -1270.626709  -12581.11328     93.665100
    7903           0       186.795151  -3088.703125  -12205.55566     79.488373
    7904           0       557.659363  -3043.681641  -12205.55566     66.448425
    7905           0       920.396301  -2954.293457  -12205.55566     56.164330
    7906           0      1269.716431  -2821.843750  -12205.55566     55.182835
    7907           0      1600.529053  -2648.260986  -12205.55566     56.524303
    7908           0      1908.011963  -2436.077148  -12205.55566     70.486435
    7909           0      2187.682129  -2188.384521  -12205.55566    117.331398
    7910           0      2435.464844  -1908.793457  -12205.55566    172.498001
    7911           0      2647.746582  -1601.380249  -12205.55566    185.739410
    7912           0      2821.434082  -1270.626709  -12205.55566     96.470894
    7913           0       186.795151  -3088.703125  -11830.00000     73.696571
    7914           0       557.659363  -3043.681641  -11830.00000     61.919846
    7915           0       920.396179  -2954.293457  -11830.00000     53.632988
    7916           0      1269.716431  -2821.843750  -11830.00000     54.141003
    7917           0      1600.528931  -2648.261230  -11830.00000     55.580280
    7918           0      1908.011719  -2436.077148  -11830.00000     67.748024
    7919           0      2187.682129  -2188.384521  -11830.00000    113.264587
    7920           0      2435.464844  -1908.793457  -11830.00000    169.133530
    7921           0      2647.746582  -1601.380371  -11830.00000    185.026077
    7922           0      2821.433838  -1270.626831  -11830.00000     99.583542
    7923           0       186.795135  -3088.703125  -11454.44335     67.811600
    7924           0       557.659302  -3043.681641  -11454.44335     57.326775
    7925           0       920.396179  -2954.293457  -11454.44335     51.034065
    7926           0      1269.716309  -2821.843750  -11454.44335     52.936928
    7927           0      1600.528931  -2648.261230  -11454.44335     54.420658
    7928           0      1908.011719  -2436.077148  -11454.44335     64.715225
    7929           0      2187.682129  -2188.384521  -11454.44335    108.814865
    7930           0      2435.464844  -1908.793457  -11454.44335    165.444321
    7931           0      2647.746582  -1601.380371  -11454.44335    184.206741
    7932           0      2821.433838  -1270.626831  -11454.44335    102.995209
    7933           0       186.795120  -3088.703125  -11078.88867     61.848045
    7934           0       557.659302  -3043.681641  -11078.88867     52.677460
    7935           0       920.396179  -2954.293457  -11078.88867     48.367844
    7936           0      1269.716309  -2821.843750  -11078.88867     51.562683
    7937           0      1600.528809  -2648.261230  -11078.88867     53.053970
    7938           0      1908.011719  -2436.077148  -11078.88867     61.392754
    7939           0      2187.682129  -2188.384521  -11078.88867    103.978470
    7940           0      2435.464844  -1908.793701  -11078.88867    161.418243
    7941           0      2647.746338  -1601.380371  -11078.88867    183.262360
    7942           0      2821.433838  -1270.626831  -11078.88867    106.692474
    7943           0       186.795105  -3088.703125  -10703.33300     55.822475
    7944           0       557.659241  -3043.681641  -10703.33300     47.983727
    7945           0       920.396179  -2954.293457  -10703.33300     45.634315
    7946           0      1269.716309  -2821.843750  -10703.33300     50.016201
    7947           0      1600.528809  -2648.261230  -10703.33300     51.485451
    7948           0      1908.011719  -2436.077148  -10703.33300     57.797508
    7949           0      2187.682129  -2188.384521  -10703.33300     98.755173
    7950           0      2435.464600  -1908.793701  -10703.33300    157.042511
    7951           0      2647.746338  -1601.380371  -10703.33300    182.174515
    7952           0      2821.433838  -1270.626831  -10703.33300    110.658852
    7953           0       186.795090  -3088.703125  -10327.77734     49.753349
    7954           0       557.659241  -3043.681641  -10327.77734     43.260216
    7955           0       920.396118  -2954.293457  -10327.77734     42.840530
    7956           0      1269.716187  -2821.843750  -10327.77734     48.298195
    7957           0      1600.528687  -2648.261230  -10327.77734     49.727859
    7958           0      1908.011719  -2436.077393  -10327.77734     53.943901
    7959           0      2187.681885  -2188.384766  -10327.77734     93.146049
    7960           0      2435.464600  -1908.793701  -10327.77734    152.307693
    7961           0      2647.746338  -1601.380371  -10327.77734    180.920944
    7962           0      2821.433838  -1270.626831  -10327.77734    114.872108
    7963           0       186.795090  -3088.703125  -9952.220703     43.662251
    7964           0       557.659180  -3043.681641  -9952.220703     38.527660
    7965           0       920.395996  -2954.293457  -9952.220703     39.997108
    7966           0      1269.716064  -2821.843750  -9952.220703     46.412075
    7967           0      1600.528564  -2648.261230  -9952.220703     47.793373
    7968           0      1908.011719  -2436.077393  -9952.220703     49.858715
    7969           0      2187.681885  -2188.384766  -9952.220703     87.158081
    7970           0      2435.464600  -1908.793701  -9952.220703    147.203522
    7971           0      2647.746338  -1601.380371  -9952.220703    179.477966
    7972           0      2821.433838  -1270.626831  -9952.220703    119.305038
    7973           0       186.795074  -3088.703125  -9576.666016     37.575333
    7974           0       557.659180  -3043.681641  -9576.666016     33.814472
    7975           0       920.395996  -2954.293457  -9576.666016     37.119740
    7976           0      1269.716064  -2821.843750  -9576.666016     44.365425
    7977           0      1600.528564  -2648.261230  -9576.666016     45.704117
    7978           0      1908.011475  -2436.077637  -9576.666016     45.570675
    7979           0      2187.681641  -2188.384766  -9576.666016     80.798538
    7980           0      2435.464600  -1908.793701  -9576.666016    141.724396
    7981           0      2647.746338  -1601.380615  -9576.666016    177.819977
    7982           0      2821.433838  -1270.626831  -9576.666016    123.923737
    7983           0       186.795059  -3088.703125  -9201.111328     31.528406
    7984           0       557.659119  -3043.681641  -9201.111328     29.163813
    7985           0       920.395996  -2954.293457  -9201.111328     34.235321
    7986           0      1269.716064  -2821.843750  -9201.111328     42.170044
    7987           0      1600.528564  -2648.261230  -9201.111328     43.484798
    7988           0      1908.011475  -2436.077637  -9201.111328     41.135380
    7989           0      2187.681641  -2188.384766  -9201.111328     74.096794
    7990           0      2435.464600  -1908.793823  -9201.111328    135.867065
    7991           0      2647.746338  -1601.380615  -9201.111328    175.918015
    7992           0      2821.433838  -1270.626831  -9201.111328    128.689026
    7993           0       186.795059  -3088.703125  -8825.555664     25.576117
    7994           0       557.659119  -3043.681641  -8825.555664     24.645851
    7995           0       920.395935  -2954.293457  -8825.555664     31.374924
    7996           0      1269.715820  -2821.843750  -8825.555664     39.848164
    7997           0      1600.528442  -2648.261230  -8825.555664     41.165291
    7998           0      1908.011475  -2436.077637  -8825.555664     36.620392
    7999           0      2187.681641  -2188.384766  -8825.555664     67.065018
    8000           0      2435.464600  -1908.793823  -8825.555664    129.647324
    8001           0      2647.746338  -1601.380615  -8825.555664    173.739502
    8002           0      2821.433838  -1270.626831  -8825.555664    133.551147
    8003           0       186.795059  -3088.703125  -8450.000977     19.821167
    8004           0       557.659119  -3043.681641  -8450.000977     20.383469
    8005           0       920.395874  -2954.293457  -8450.000977     28.585985
    8006           0      1269.715820  -2821.843750  -8450.000977     37.418289
    8007           0      1600.528442  -2648.261230  -8450.000977     38.796898
    8008           0      1908.011475  -2436.077637  -8450.000977     32.154900
    8009           0      2187.681641  -2188.384766  -8450.000977     59.770706
    8010           0      2435.464600  -1908.793823  -8450.000977    123.073921
    8011           0      2647.746338  -1601.380615  -8450.000977    171.255188
    8012           0      2821.433838  -1270.626831  -8450.000977    138.454086
    8013           0       186.795044  -3088.703125  -8074.445313     14.499598
    8014           0       557.659058  -3043.681641  -8074.445313     16.604778
    8015           0       920.395874  -2954.293457  -8074.445313     25.932825
    8016           0      1269.715820  -2821.843750  -8074.445313     34.902798
    8017           0      1600.528442  -2648.261230  -8074.445313     36.448238
    8018           0      1908.011475  -2436.077637  -8074.445313     27.939869
    8019           0      2187.681641  -2188.384766  -8074.445313     52.318127
    8020           0      2435.464355  -1908.793945  -8074.445313    116.172935
    8021           0      2647.746094  -1601.380615  -8074.445313    168.437027
    8022           0      2821.433838  -1270.626831  -8074.445313    143.329315
    8023           0       186.795029  -3088.703125  -7698.889160     10.276143
    8024           0       557.659058  -3043.681641  -7698.889160     13.738333
    8025           0       920.395752  -2954.293945  -7698.889160     23.495407
    8026           0      1269.715820  -2821.843994  -7698.889160     32.337555
    8027           0      1600.528320  -2648.261230  -7698.889160     34.198181
    8028           0      1908.011230  -2436.077637  -7698.889160     24.317652
    8029           0      2187.681641  -2188.385254  -7698.889160     44.856941
    8030           0      2435.464355  -1908.793945  -7698.889160    109.009705
    8031           0      2647.746094  -1601.380615  -7698.889160    165.251282
    8032           0      2821.433838  -1270.626831  -7698.889160    148.099945
    8033           0       186.795013  -3088.703125  -7323.333496      8.823797
    8034           0       557.658997  -3043.681641  -7323.333496     12.440017
    8035           0       920.395752  -2954.293945  -7323.333496     21.379541
    8036           0      1269.715698  -2821.843994  -7323.333496     29.759853
    8037           0      1600.528076  -2648.261475  -7323.333496     32.152580
    8038           0      1908.011108  -2436.077881  -7323.333496     21.831263
    8039           0      2187.681641  -2188.385254  -7323.333496     37.709091
    8040           0      2435.464355  -1908.793945  -7323.333496    101.672966
    8041           0      2647.746094  -1601.380615  -7323.333496    161.673782
    8042           0      2821.433838  -1270.626831  -7323.333496    152.672455
    8043           0       186.794998  -3088.703125  -6947.777832     11.203516
    8044           0       557.658997  -3043.681641  -6947.777832     13.171494
    8045           0       920.395691  -2954.293945  -6947.777832     19.712914
    8046           0      1269.715576  -2821.843994  -6947.777832     27.209049
    8047           0      1600.528076  -2648.261475  -6947.777832     30.439791
    8048           0      1908.011108  -2436.077881  -6947.777832     21.131693
    8049           0      2187.681641  -2188.385254  -6947.777832     31.477451
    8050           0      2435.464355  -1908.793945  -6947.777832     94.310242
    8051           0      2647.746094  -1601.380615  -6947.777832    157.684189
    8052           0      2821.433838  -1270.626953  -6947.777832    156.946060
    8053           0       186.794998  -3088.703125  -6572.222656     15.711342
    8054           0       557.658936  -3043.681641  -6572.222656     15.630174
    8055           0       920.395569  -2954.293945  -6572.222656     18.625092
    8056           0      1269.715576  -2821.843994  -6572.222656     24.730762
    8057           0      1600.528076  -2648.261475  -6572.222656     29.203129
    8058           0      1908.011108  -2436.077881  -6572.222656     22.610025
    8059           0      2187.681641  -2188.385254  -6572.222656     27.275509
    8060           0      2435.464355  -1908.794067  -6572.222656     87.142868
    8061           0      2647.746094  -1601.380615  -6572.222656    153.279663
    8062           0      2821.433838  -1270.626953  -6572.222656    160.797989
    8063           0       186.794983  -3088.703125  -6196.666992     20.975327
    8064           0       557.658936  -3043.681641  -6196.666992     19.134459
    8065           0       920.395569  -2954.293945  -6196.666992     18.216705
    8066           0      1269.715576  -2821.844238  -6196.666992     22.371338
    8067           0      1600.528076  -2648.261719  -6196.666992     28.575668
    8068           0      1908.010986  -2436.077881  -6196.666992     26.081854
    8069           0      2187.681396  -2188.385254  -6196.666992     26.580120
    8070           0      2435.464355  -1908.794189  -6196.666992     80.508957
    8071           0      2647.746094  -1601.380615  -6196.666992    148.471542
    8072           0      2821.433838  -1270.626953  -6196.666992    164.100433
    8073           0       186.794968  -3088.703125  -5821.111328     26.513821
    8074           0       557.658936  -3043.681641  -5821.111328     23.187323
    8075           0       920.395569  -2954.293945  -5821.111328     18.513245
    8076           0      1269.715576  -2821.844238  -5821.111328     20.178474
    8077           0      1600.528076  -2648.261719  -5821.111328     28.653351
    8078           0      1908.010986  -2436.077881  -5821.111328     31.019875
    8079           0      2187.681396  -2188.385254  -5821.111328     30.064217
    8080           0      2435.464355  -1908.794189  -5821.111328     74.888733
    8081           0      2647.746094  -1601.380737  -5821.111328    143.310791
    8082           0      2821.433838  -1270.626953  -5821.111328    166.698578
    8083           0       186.794952  -3088.703125  -5445.555664     32.156818
    8084           0       557.658813  -3043.681641  -5445.555664     27.518667
    8085           0       920.395508  -2954.293945  -5445.555664     19.456057
    8086           0      1269.715454  -2821.844238  -5445.555664     18.195374
    8087           0      1600.527954  -2648.261719  -5445.555664     29.459078
    8088           0      1908.010986  -2436.077881  -5445.555664     36.947002
    8089           0      2187.681396  -2188.385254  -5445.555664     36.875450
    8090           0      2435.464355  -1908.794189  -5445.555664     70.926727
    8091           0      2647.746094  -1601.380737  -5445.555664    137.884842
    8092           0      2821.433838  -1270.626953  -5445.555664    168.443161
    8093           0       186.794937  -3088.703125  -5070.000000     37.834400
    8094           0       557.658813  -3043.681641  -5070.000000     31.991508
    8095           0       920.395508  -2954.293945  -5070.000000     20.921223
    8096           0      1269.715332  -2821.844238  -5070.000000     16.459515
    8097           0      1600.527954  -2648.261719  -5070.000000     30.943630
    8098           0      1908.010864  -2436.078125  -5070.000000     43.521305
    8099           0      2187.681396  -2188.385254  -5070.000000     45.809101
    8100           0      2435.464355  -1908.794189  -5070.000000     69.342346
    8101           0      2647.746094  -1601.380737  -5070.000000    132.361130
    8102           0      2821.433838  -1270.626953  -5070.000000    169.154388
    8103           0       186.794937  -3088.703125  -4694.444824     43.514103
    8104           0       557.658813  -3043.681641  -4694.444824     36.530895
    8105           0       920.395386  -2954.293945  -4694.444824     22.775364
    8106           0      1269.715332  -2821.844238  -4694.444824     14.994892
    8107           0      1600.527832  -2648.261719  -4694.444824     32.994217
    8108           0      1908.010742  -2436.078125  -4694.444824     50.534615
    8109           0      2187.681152  -2188.385254  -4694.444824     56.023785
    8110           0      2435.464355  -1908.794189  -4694.444824     70.765533
    8111           0      2647.746094  -1601.380737  -4694.444824    126.987846
    8112           0      2821.433838  -1270.626953  -4694.444824    168.679977
    8113           0       186.794922  -3088.703125  -4318.889160     49.178585
    8114           0       557.658752  -3043.681641  -4318.889160     41.098965
    8115           0       920.395386  -2954.293945  -4318.889160     24.894320
    8116           0      1269.715332  -2821.844238  -4318.889160     13.811481
    8117           0      1600.527832  -2648.261719  -4318.889160     35.481102
    8118           0      1908.010742  -2436.078125  -4318.889160     57.826454
    8119           0      2187.681152  -2188.385254  -4318.889160     67.095840
    8120           0      2435.464111  -1908.794312  -4318.889160     75.451576
    8121           0      2647.746094  -1601.380859  -4318.889160    122.151451
    8122           0      2821.433838  -1270.626953  -4318.889160    166.841171
    8123           0       186.794907  -3088.703125  -3943.333740     54.818836
    8124           0       557.658752  -3043.681641  -3943.333740     45.670486
    8125           0       920.395386  -2954.293945  -3943.333740     27.191645
    8126           0      1269.715210  -2821.844238  -3943.333740     12.900268
    8127           0      1600.527710  -2648.261719  -3943.333740     38.268826
    8128           0      1908.010742  -2436.078125  -3943.333740     65.293739
    8129           0      2187.681152  -2188.385254  -3943.333740     78.709732
    8130           0      2435.464111  -1908.794312  -3943.333740     83.281937
    8131           0      2647.746094  -1601.380859  -3943.333740    118.372871
    8132           0      2821.433838  -1270.626953  -3943.333740    163.540665
    8133           0       186.794907  -3088.703125  -3567.778076     60.427460
    8134           0       557.658752  -3043.681641  -3567.778076     50.234509
    8135           0       920.395325  -2954.293945  -3567.778076     29.597668
    8136           0      1269.715088  -2821.844238  -3567.778076     12.238962
    8137           0      1600.527588  -2648.261719  -3567.778076     41.260952
    8138           0      1908.010498  -2436.078125  -3567.778076     72.842506
    8139           0      2187.681152  -2188.385498  -3567.778076     90.756432
    8140           0      2435.464111  -1908.794434  -3567.778076     93.763481
    8141           0      2647.746094  -1601.380859  -3567.778076    116.307762
    8142           0      2821.433838  -1270.626953  -3567.778076    158.668854
    8143           0       186.794891  -3088.703125  -3192.221436     66.006454
    8144           0       557.658691  -3043.681641  -3192.221436     54.780407
    8145           0       920.395264  -2954.293945  -3192.221436     32.079628
    8146           0      1269.715088  -2821.844238  -3192.221436     11.793271
    8147           0      1600.527588  -2648.261719  -3192.221436     44.362797
    8148           0      1908.010498  -2436.078125  -3192.221436     80.397934
    8149           0      2187.680908  -2188.385742  -3192.221436    103.013397
    8150           0      2435.463867  -1908.794434  -3192.221436    106.473717
    8151           0      2647.746094  -1601.380859  -3192.221436    116.720825
    8152           0      2821.433838  -1270.626953  -3192.221436    152.328110
    8153           0       186.794876  -3088.703125  -2816.665771     71.537598
    8154           0       557.658691  -3043.681641  -2816.665771     59.291115
    8155           0       920.395264  -2954.293945  -2816.665771     34.589596
    8156           0      1269.715088  -2821.844238  -2816.665771     11.528202
    8157           0      1600.527466  -2648.261719  -2816.665771     47.565075
    8158           0      1908.010498  -2436.078125  -2816.665771     87.931854
    8159           0      2187.680908  -2188.385742  -2816.665771    115.460938
    8160           0      2435.463867  -1908.794434  -2816.665771    120.721237
    8161           0      2647.746094  -1601.380859  -2816.665771    120.148125
    8162           0      2821.433838  -1270.626953  -2816.665771    144.630402
    8163           0       186.794876  -3088.703125  -2441.111328     77.080101
    8164           0       557.658630  -3043.681641  -2441.111328     63.807468
    8165           0       920.395142  -2954.293945  -2441.111328     37.158577
    8166           0      1269.714966  -2821.844238  -2441.111328     11.392458
    8167           0      1600.527466  -2648.261963  -2441.111328     50.777634
    8168           0      1908.010498  -2436.078613  -2441.111328     95.393715
    8169           0      2187.680908  -2188.385742  -2441.111328    127.934074
    8170           0      2435.463867  -1908.794678  -2441.111328    136.507492
    8171           0      2647.746094  -1601.380981  -2441.111328    127.272591
    8172           0      2821.433838  -1270.626953  -2441.111328    136.219528
    8173           0       186.794861  -3088.703125  -2065.554932     82.444336
    8174           0       557.658630  -3043.681641  -2065.554932     68.165665
    8175           0       920.395081  -2954.293945  -2065.554932     39.617649
    8176           0      1269.714844  -2821.844238  -2065.554932     11.367743
    8177           0      1600.527466  -2648.261963  -2065.554932     54.081303
    8178           0      1908.010498  -2436.078613  -2065.554932    102.778633
    8179           0      2187.680908  -2188.385742  -2065.554932    140.209854
    8180           0      2435.463867  -1908.794678  -2065.554932    152.492386
    8181           0      2647.746094  -1601.381104  -2065.554932    137.337173
    8182           0      2821.433838  -1270.626953  -2065.554932    127.654373
    8183           0       186.794846  -3088.703125  -1689.998413     88.189713
    8184           0       557.658569  -3043.681641  -1689.998413     72.861115
    8185           0       920.395020  -2954.293945  -1689.998413     42.352859
    8186           0      1269.714844  -2821.844238  -1689.998413     11.355368
    8187           0      1600.527344  -2648.261963  -1689.998413     57.352341
    8188           0      1908.010254  -2436.078613  -1689.998413    110.396889
    8189           0      2187.680908  -2188.385742  -1689.998413    153.029877
    8190           0      2435.463867  -1908.794678  -1689.998413    170.495728
    8191           0      2647.746094  -1601.381104  -1689.998413    151.691574
    8192           0      2821.433838  -1270.626953  -1689.998413    120.736359
    8193           0       186.794830  -3088.703125  -1314.443848     92.824837
    8194           0       557.658569  -3043.681641  -1314.443848     76.582825
    8195           0       920.394958  -2954.293945  -1314.443848     44.364037
    8196           0      1269.714844  -2821.844238  -1314.443848     11.435385
    8197           0      1600.527344  -2648.261963  -1314.443848     60.478340
    8198           0      1908.010132  -2436.078613  -1314.443848    117.187874
    8199           0      2187.680664  -2188.385742  -1314.443848    163.933105
    8200           0      2435.463867  -1908.794678  -1314.443848    185.353928
    8201           0      2647.746094  -1601.381104  -1314.443848    165.675568
    8202           0      2821.433838  -1270.626953  -1314.443848    115.969818
    8203           0       186.794815  -3088.703125   -938.888367     99.790573
    8204           0       557.658447  -3043.681641   -938.888367     82.317635
    8205           0       920.394958  -2954.293945   -938.888367     47.830620
    8206           0      1269.714722  -2821.844238   -938.888367     11.424181
    8207           0      1600.527222  -2648.261963   -938.888367     64.036705
    8208           0      1908.010132  -2436.078613   -938.888367    126.217743
    8209           0      2187.680664  -2188.385742   -938.888367    179.161606
    8210           0      2435.463867  -1908.794678   -938.888367    206.652939
    8211           0      2647.746094  -1601.381104   -938.888367    186.101334
    8212           0      2821.433838  -1270.626953   -938.888367    115.899498
    8213           0       186.794815  -3088.703125   -563.331787    103.198860
    8214           0       557.658447  -3043.681641   -563.331787     84.968056
    8215           0       920.394958  -2954.293945   -563.331787     49.135464
    8216           0      1269.714722  -2821.844482   -563.331787     11.846407
    8217           0      1600.527100  -2648.262207   -563.331787     66.849174
    8218           0      1908.010132  -2436.078613   -563.331787    131.629547
    8219           0      2187.680664  -2188.385742   -563.331787    188.276871
    8220           0      2435.463867  -1908.794678   -563.331787    218.353775
    8221           0      2647.746094  -1601.381104   -563.331787    199.602737
    8222           0      2821.433838  -1270.626953   -563.331787    118.413582
    8223           0       186.794800  -3088.703125   -187.777267    105.610626
    8224           0       557.658447  -3043.681641   -187.777267     86.958534
    8225           0       920.394897  -2954.293945   -187.777267     50.376907
    8226           0      1269.714722  -2821.844482   -187.777267     10.207796
    8227           0      1600.527100  -2648.262207   -187.777267     66.999741
    8228           0      1908.010010  -2436.078613   -187.777267    134.188431
    8229           0      2187.680664  -2188.385986   -187.777267    195.187073
    8230           0      2435.463867  -1908.794678   -187.777267    230.023376
    8231           0      2647.746094  -1601.381104   -187.777267    208.595627
    8232           0      2821.433838  -1270.626953   -187.777267    112.836380
    8233           0      2954.035645   -921.190063  -33612.22265    241.883636
    8234           0      3043.581055   -558.149414  -33612.22265    371.614594
    8235           0      3088.683105   -186.959442  -33612.22265    444.480499
    8236           0      2954.035645   -921.189941  -33236.66796    254.767029
    8237           0      3043.581299   -558.149048  -33236.66796    370.946075
    8238           0      3088.683105   -186.959229  -33236.66796    438.075531
    8239           0      2954.035645   -921.189941  -32861.10937    253.035446
    8240           0      3043.581299   -558.149048  -32861.10937    360.222687
    8241           0      3088.683105   -186.959229  -32861.11328    426.070251
    8242           0      2954.035645   -921.189941  -32485.55664    250.467361
    8243           0      3043.581299   -558.149048  -32485.55664    340.274445
    8244           0      3088.683105   -186.959244  -32485.55664    401.975586
    8245           0      2954.035645   -921.189941  -32110.00000    249.139526
    8246           0      3043.581299   -558.149048  -32110.00000    326.663269
    8247           0      3088.683105   -186.959259  -32110.00000    386.207031
    8248           0      2954.035645   -921.189941  -31734.44531    247.857025
    8249           0      3043.581299   -558.149048  -31734.44531    310.722717
    8250           0      3088.683105   -186.959259  -31734.44531    366.302155
    8251           0      2954.035645   -921.189941  -31358.88867    247.053116
    8252           0      3043.581299   -558.149048  -31358.89062    297.685486
    8253           0      3088.683105   -186.959259  -31358.89062    348.541351
    8254           0      2954.035645   -921.189941  -30983.33398    246.060608
    8255           0      3043.581299   -558.149048  -30983.33398    285.655304
    8256           0      3088.683105   -186.959259  -30983.33398    330.639740
    8257           0      2954.035645   -921.189941  -30607.77734    244.648376
    8258           0      3043.581299   -558.149048  -30607.77734    275.684418
    8259           0      3088.683105   -186.959259  -30607.77734    313.938782
    8260           0      2954.035645   -921.189941  -30232.22265    242.572540
    8261           0      3043.581299   -558.149048  -30232.22265    267.282867
    8262           0      3088.683105   -186.959259  -30232.22265    298.198151
    8263           0      2954.035645   -921.189941  -29856.66796    239.697357
    8264           0      3043.581299   -558.149109  -29856.66796    260.504150
    8265           0      3088.683105   -186.959290  -29856.66796    283.792816
    8266           0      2954.035645   -921.189941  -29481.10937    236.003174
    8267           0      3043.581299   -558.149170  -29481.10937    255.050888
    8268           0      3088.683105   -186.959305  -29481.10937    270.753113
    8269           0      2954.035645   -921.189941  -29105.55468    231.502731
    8270           0      3043.581299   -558.149170  -29105.55468    250.744171
    8271           0      3088.683105   -186.959305  -29105.55468    259.210083
    8272           0      2954.035645   -921.189941  -28729.99804    226.284714
    8273           0      3043.581299   -558.149170  -28729.99804    247.335388
    8274           0      3088.683105   -186.959305  -28729.99804    249.169540
    8275           0      2954.035645   -921.189941  -28354.44335    220.439941
    8276           0      3043.581299   -558.149170  -28354.44140    244.629471
    8277           0      3088.683105   -186.959305  -28354.44140    240.644470
    8278           0      2954.035645   -921.189941  -27978.88867    214.093292
    8279           0      3043.581299   -558.149170  -27978.88671    242.439377
    8280           0      3088.683105   -186.959305  -27978.88671    233.577393
    8281           0      2954.035645   -921.190002  -27603.33398    207.357376
    8282           0      3043.581299   -558.149170  -27603.33398    240.618530
    8283           0      3088.683105   -186.959305  -27603.33593    227.897827
    8284           0      2954.035645   -921.190002  -27227.77734    200.355240
    8285           0      3043.581299   -558.149170  -27227.77734    239.043365
    8286           0      3088.683105   -186.959320  -27227.77929    223.496399
    8287           0      2954.035645   -921.190002  -26852.22265    193.192810
    8288           0      3043.581299   -558.149231  -26852.22265    237.622345
    8289           0      3088.683105   -186.959335  -26852.22265    220.251221
    8290           0      2954.035645   -921.190002  -26476.66796    185.972809
    8291           0      3043.581299   -558.149231  -26476.66796    236.286362
    8292           0      3088.683105   -186.959335  -26476.66796    218.022675
    8293           0      2954.035645   -921.190002  -26101.11132    178.784760
    8294           0      3043.581299   -558.149231  -26101.10937    234.985077
    8295           0      3088.683105   -186.959335  -26101.11132    216.673035
    8296           0      2954.035645   -921.190002  -25725.55468    171.707001
    8297           0      3043.581299   -558.149231  -25725.55664    233.685837
    8298           0      3088.683105   -186.959335  -25725.55664    216.061783
    8299           0      2954.035645   -921.190002  -25349.99804    164.805298
    8300           0      3043.581299   -558.149231  -25350.00000    232.366852
    8301           0      3088.683105   -186.959335  -25350.00000    216.059952
    8302           0      2954.035645   -921.190002  -24974.44335    158.134918
    8303           0      3043.581299   -558.149231  -24974.44140    231.016724
    8304           0      3088.683105   -186.959335  -24974.44140    216.545898
    8305           0      2954.035645   -921.190002  -24598.89062    151.739822
    8306           0      3043.581299   -558.149231  -24598.89062    229.630875
    8307           0      3088.683105   -186.959351  -24598.88867    217.412689
    8308           0      2954.035645   -921.190002  -24223.33398    145.653717
    8309           0      3043.581299   -558.149231  -24223.33593    228.209473
    8310           0      3088.683105   -186.959366  -24223.33398    218.565933
    8311           0      2954.035645   -921.190002  -23847.77734    139.900635
    8312           0      3043.581299   -558.149231  -23847.77734    226.756500
    8313           0      3088.683105   -186.959366  -23847.77734    219.924118
    8314           0      2954.035645   -921.190002  -23472.22070    134.495193
    8315           0      3043.581299   -558.149231  -23472.21875    225.278030
    8316           0      3088.683105   -186.959366  -23472.22070    221.416916
    8317           0      2954.035645   -921.190002  -23096.66406    129.442795
    8318           0      3043.581299   -558.149231  -23096.66015    223.781387
    8319           0      3088.683105   -186.959366  -23096.66210    222.987808
    8320           0      2954.035645   -921.190063  -22721.10937    124.743080
    8321           0      3043.581299   -558.149292  -22721.10546    222.274460
    8322           0      3088.683105   -186.959366  -22721.10742    224.587524
    8323           0      2954.035645   -921.190063  -22345.55468    120.386124
    8324           0      3043.581299   -558.149292  -22345.55078    220.765518
    8325           0      3088.683105   -186.959366  -22345.55273    226.176407
    8326           0      2954.035645   -921.190063  -21970.00000    116.356071
    8327           0      3043.581299   -558.149292  -21969.99804    219.262756
    8328           0      3088.683105   -186.959381  -21969.99609    227.721008
    8329           0      2954.035645   -921.190063  -21594.44531    112.631142
    8330           0      3043.581299   -558.149292  -21594.44531    217.773911
    8331           0      3088.683105   -186.959396  -21594.44531    229.194260
    8332           0      2954.035645   -921.190063  -21218.88867    109.185440
    8333           0      3043.581299   -558.149292  -21218.88867    216.305969
    8334           0      3088.683105   -186.959396  -21218.88867    230.574371
    8335           0      2954.035645   -921.190063  -20843.33398    105.988564
    8336           0      3043.581299   -558.149292  -20843.33398    214.865662
    8337           0      3088.683105   -186.959396  -20843.33398    231.842606
    8338           0      2954.035645   -921.190063  -20467.77929    103.007568
    8339           0      3043.581299   -558.149292  -20467.78125    213.458969
    8340           0      3088.683105   -186.959396  -20467.77929    232.983932
    8341           0      2954.035645   -921.190063  -20092.22070    100.207565
    8342           0      3043.581299   -558.149292  -20092.21875    212.090683
    8343           0      3088.683105   -186.959396  -20092.22070    233.986023
    8344           0      2954.035645   -921.190063  -19716.66601     97.552399
    8345           0      3043.581299   -558.149292  -19716.66601    210.765472
    8346           0      3088.683105   -186.959396  -19716.66796    234.838226
    8347           0      2954.035645   -921.190063  -19341.11328     95.006828
    8348           0      3043.581299   -558.149292  -19341.11523    209.487228
    8349           0      3088.683105   -186.959412  -19341.11328    235.530884
    8350           0      2954.035645   -921.190063  -18965.55468     92.535339
    8351           0      3043.581299   -558.149353  -18965.55468    208.258743
    8352           0      3088.683105   -186.959427  -18965.55468    236.056824
    8353           0      2954.035645   -921.190063  -18590.00000     90.104279
    8354           0      3043.581299   -558.149353  -18590.00000    207.082321
    8355           0      3088.683105   -186.959427  -18590.00000    236.408844
    8356           0      2954.035645   -921.190063  -18214.44531     87.681793
    8357           0      3043.581299   -558.149353  -18214.44531    205.959595
    8358           0      3088.683105   -186.959427  -18214.44531    236.580231
    8359           0      2954.035645   -921.190063  -17838.88867     85.238770
    8360           0      3043.581299   -558.149353  -17838.88671    204.891418
    8361           0      3088.683105   -186.959427  -17838.88867    236.565384
    8362           0      2954.035645   -921.190063  -17463.33203     82.748718
    8363           0      3043.581299   -558.149353  -17463.33203    203.877960
    8364           0      3088.683105   -186.959427  -17463.33203    236.358444
    8365           0      2954.035645   -921.190063  -17087.77734     80.188759
    8366           0      3043.581299   -558.149353  -17087.77734    202.919128
    8367           0      3088.683105   -186.959427  -17087.77734    235.953217
    8368           0      2954.035645   -921.190063  -16712.22070     77.539352
    8369           0      3043.581299   -558.149414  -16712.22265    202.014023
    8370           0      3088.683105   -186.959442  -16712.22265    235.343231
    8371           0      2954.035645   -921.190063  -16336.66601     74.785355
    8372           0      3043.581299   -558.149414  -16336.66796    201.160553
    8373           0      3088.683105   -186.959473  -16336.66796    234.523239
    8374           0      2954.035645   -921.190063  -15961.11035     71.916664
    8375           0      3043.581299   -558.149414  -15961.10937    200.356506
    8376           0      3088.683105   -186.959473  -15961.10937    233.486649
    8377           0      2954.035645   -921.190063  -15585.55371     68.928452
    8378           0      3043.581299   -558.149414  -15585.55273    199.599060
    8379           0      3088.683105   -186.959473  -15585.55273    232.226074
    8380           0      2954.035645   -921.190063  -15209.99902     65.821648
    8381           0      3043.581299   -558.149414  -15210.00000    198.883759
    8382           0      3088.683105   -186.959473  -15209.99902    230.735275
    8383           0      2954.035645   -921.190063  -14834.44433     62.606033
    8384           0      3043.581299   -558.149414  -14834.44335    198.206207
    8385           0      3088.683105   -186.959473  -14834.44335    229.006668
    8386           0      2954.035645   -921.190063  -14458.88769     59.302437
    8387           0      3043.581299   -558.149414  -14458.88671    197.561050
    8388           0      3088.683105   -186.959488  -14458.88769    227.030533
    8389           0      2954.035645   -921.190063  -14083.33496     55.945236
    8390           0      3043.581299   -558.149414  -14083.33398    196.940994
    8391           0      3088.683105   -186.959503  -14083.33203    224.800171
    8392           0      2954.035645   -921.190063  -13707.77929     52.579369
    8393           0      3043.581299   -558.149414  -13707.77832    196.339523
    8394           0      3088.683105   -186.959503  -13707.77636    222.306168
    8395           0      2954.035645   -921.190063  -13332.22460     49.286572
    8396           0      3043.581299   -558.149414  -13332.22656    195.746506
    8397           0      3088.683105   -186.959503  -13332.22460    219.538605
    8398           0      2954.035645   -921.190063  -12956.67382     46.167885
    8399           0      3043.581055   -558.149475  -12956.67968    195.153763
    8400           0      3088.683105   -186.959503  -12956.67382    216.488251
    8401           0      2954.035645   -921.190063  -12581.11718     43.371582
    8402           0      3043.581055   -558.149475  -12581.12402    194.543518
    8403           0      3088.683105   -186.959503  -12581.11914    213.147415
    8404           0      2954.035645   -921.190063  -12205.56054     41.081249
    8405           0      3043.581055   -558.149475  -12205.56640    193.913147
    8406           0      3088.683105   -186.959503  -12205.56054    209.499832
    8407           0      2954.035645   -921.190063  -11830.00000     39.518841
    8408           0      3043.581055   -558.149475  -11830.00097    193.241592
    8409           0      3088.683105   -186.959518  -11830.00000    205.539856
    8410           0      2954.035645   -921.190063  -11454.43945     38.913769
    8411           0      3043.581055   -558.149536  -11454.43554    192.513199
    8412           0      3088.683105   -186.959534  -11454.44043    201.257523
    8413           0      2954.035645   -921.190063  -11078.88867     39.451786
    8414           0      3043.581055   -558.149536  -11078.88867    191.710098
    8415           0      3088.683105   -186.959534  -11078.88769    196.644150
    8416           0      2954.035645   -921.190063  -10703.33203     41.222729
    8417           0      3043.581055   -558.149536  -10703.33007    190.811539
    8418           0      3088.683105   -186.959534  -10703.33105    191.693130
    8419           0      2954.035645   -921.190063  -10327.77539     44.198997
    8420           0      3043.581055   -558.149536  -10327.77246    189.795410
    8421           0      3088.683105   -186.959534  -10327.77539    186.400940
    8422           0      2954.035645   -921.190063  -9952.218750     48.258736
    8423           0      3043.581055   -558.149536  -9952.215820    188.637131
    8424           0      3088.683105   -186.959534  -9952.218750    180.767761
    8425           0      2954.035645   -921.190063  -9576.661133     53.233608
    8426           0      3043.581055   -558.149536  -9576.658203    187.310776
    8427           0      3088.683105   -186.959534  -9576.662109    174.799042
    8428           0      2954.035645   -921.190063  -9201.110352     58.945496
    8429           0      3043.581055   -558.149536  -9201.111328    185.788116
    8430           0      3088.683105   -186.959549  -9201.112305    168.510147
    8431           0      2954.035645   -921.190063  -8825.558594     65.228790
    8432           0      3043.581055   -558.149536  -8825.563477    184.040161
    8433           0      3088.683105   -186.959564  -8825.559570    161.927765
    8434           0      2954.035645   -921.190125  -8450.000977     71.933075
    8435           0      3043.581055   -558.149536  -8450.000977    182.036270
    8436           0      3088.683105   -186.959564  -8450.000977    155.096390
    8437           0      2954.035645   -921.190125  -8074.442383     78.921196
    8438           0      3043.581055   -558.149536  -8074.438477    179.750854
    8439           0      3088.683105   -186.959564  -8074.442383    148.082428
    8440           0      2954.035645   -921.190125  -7698.886230     86.061752
    8441           0      3043.581055   -558.149536  -7698.885742    177.158691
    8442           0      3088.683105   -186.959564  -7698.888672    140.984787
    8443           0      2954.035645   -921.190125  -7323.329590     93.229568
    8444           0      3043.581055   -558.149536  -7323.327148    174.240601
    8445           0      3088.683105   -186.959564  -7323.332031    133.947739
    8446           0      2954.035645   -921.190125  -6947.776367    100.293190
    8447           0      3043.581055   -558.149536  -6947.774902    170.988342
    8448           0      3088.683105   -186.959564  -6947.776367    127.173782
    8449           0      2954.035645   -921.190125  -6572.225586    107.117355
    8450           0      3043.581055   -558.149536  -6572.228027    167.409897
    8451           0      3088.683105   -186.959579  -6572.225098    120.939056
    8452           0      2954.035645   -921.190125  -6196.666992    113.557098
    8453           0      3043.581055   -558.149597  -6196.667480    163.537949
    8454           0      3088.683105   -186.959595  -6196.667480    115.606247
    8455           0      2954.035645   -921.190125  -5821.108398    119.459389
    8456           0      3043.581055   -558.149597  -5821.106445    159.441925
    8457           0      3088.683105   -186.959595  -5821.109375    111.625320
    8458           0      2954.035645   -921.190125  -5445.557129    124.663460
    8459           0      3043.581055   -558.149597  -5445.559570    155.242538
    8460           0      3088.683105   -186.959595  -5445.558105    109.504425
    8461           0      2954.035645   -921.190125  -5070.000488    129.003189
    8462           0      3043.581055   -558.149597  -5070.000977    151.126404
    8463           0      3088.683105   -186.959595  -5070.000488    109.740776
    8464           0      2954.035645   -921.190125  -4694.443359    132.318893
    8465           0      3043.581055   -558.149597  -4694.441406    147.380096
    8466           0      3088.683105   -186.959595  -4694.442383    112.723747
    8467           0      2954.035645   -921.190125  -4318.887695    134.458725
    8468           0      3043.581055   -558.149597  -4318.888184    144.378830
    8469           0      3088.683105   -186.959595  -4318.889648    118.641052
    8470           0      2954.035645   -921.190125  -3943.329834    135.322495
    8471           0      3043.581055   -558.149658  -3943.328125    142.652023
    8472           0      3088.683105   -186.959610  -3943.332031    127.459656
    8473           0      2954.035645   -921.190125  -3567.776123    134.840973
    8474           0      3043.581055   -558.149658  -3567.774170    142.735123
    8475           0      3088.683105   -186.959625  -3567.776123    138.940170
    8476           0      2954.035645   -921.190186  -3192.224609    133.127411
    8477           0      3043.581055   -558.149658  -3192.227539    145.369446
    8478           0      3088.683105   -186.959625  -3192.224365    152.799667
    8479           0      2954.035645   -921.190186  -2816.670898    130.317535
    8480           0      3043.581055   -558.149658  -2816.673584    150.822159
    8481           0      3088.683105   -186.959625  -2816.668457    168.521912
    8482           0      2954.035645   -921.190186  -2441.111816    127.105652
    8483           0      3043.581055   -558.149658  -2441.110352    160.007233
    8484           0      3088.683105   -186.959625  -2441.109863    186.106766
    8485           0      2954.035645   -921.190186  -2065.554443    123.833221
    8486           0      3043.581055   -558.149658  -2065.554932    171.692444
    8487           0      3088.683105   -186.959625  -2065.555176    204.209320
    8488           0      2954.035645   -921.190186  -1689.999390    122.541901
    8489           0      3043.581055   -558.149658  -1690.000488    188.391617
    8490           0      3088.683105   -186.959625  -1689.999390    224.880402
    8491           0      2954.035645   -921.190186  -1314.445313    122.456116
    8492           0      3043.581055   -558.149658  -1314.445923    203.753555
    8493           0      3088.683105   -186.959656  -1314.444336    242.161163
    8494           0      2954.035645   -921.190186   -938.888855    127.879555
    8495           0      3043.581055   -558.149719   -938.891357    228.338211
    8496           0      3088.683105   -186.959671   -938.890869    267.600189
    8497           0      2954.035645   -921.190186   -563.328796    133.621368
    8498           0      3043.581055   -558.149719   -563.328308    243.837326
    8499           0      3088.683105   -186.959671   -563.331299    281.621979
    8500           0      2954.035645   -921.190186   -187.775253    136.324783
    8501           0      3043.581055   -558.149719   -187.773239    257.663727
    8502           0      3088.683105   -186.959671   -187.775253    295.037689
    8503           0     -3088.683105   -186.960587  -33612.22265    310.602295
    8504           0     -3043.581055   -558.151123  -33612.22265    264.787598
    8505           0     -2954.035645   -921.190552  -33612.22265    217.922897
    8506           0     -3088.683105   -186.960693  -33236.66796    303.004974
    8507           0     -3043.581055   -558.151428  -33236.66796    268.999237
    8508           0     -2954.035645   -921.190796  -33236.66796    241.203217
    8509           0     -3088.683105   -186.960693  -32861.10937    293.505920
    8510           0     -3043.581055   -558.151428  -32861.11328    261.638611
    8511           0     -2954.035645   -921.190796  -32861.11328    243.243347
    8512           0     -3088.683105   -186.960693  -32485.55664    277.989502
    8513           0     -3043.581055   -558.151428  -32485.55664    255.167770
    8514           0     -2954.035645   -921.190735  -32485.55664    247.093750
    8515           0     -3088.683105   -186.960693  -32110.00000    267.650238
    8516           0     -3043.581055   -558.151367  -32110.00000    248.592041
    8517           0     -2954.035645   -921.190674  -32110.00000    250.036469
    8518           0     -3088.683105   -186.960693  -31734.44531    255.363678
    8519           0     -3043.581055   -558.151367  -31734.44531    243.191727
    8520           0     -2954.035645   -921.190674  -31734.44531    252.248001
    8521           0     -3088.683105   -186.960693  -31358.89062    245.175995
    8522           0     -3043.581055   -558.151367  -31358.89062    238.647522
    8523           0     -2954.035645   -921.190674  -31358.88867    254.577835
    8524           0     -3088.683105   -186.960693  -30983.33398    235.298630
    8525           0     -3043.581055   -558.151367  -30983.33398    235.744949
    8526           0     -2954.035645   -921.190674  -30983.33398    256.039215
    8527           0     -3088.683105   -186.960693  -30607.77734    227.011444
    8528           0     -3043.581055   -558.151367  -30607.77734    234.008240
    8529           0     -2954.035645   -921.190674  -30607.77734    257.091614
    8530           0     -3088.683105   -186.960678  -30232.22265    219.847534
    8531           0     -3043.581055   -558.151367  -30232.22265    233.576950
    8532           0     -2954.035645   -921.190674  -30232.22265    257.079620
    8533           0     -3088.683105   -186.960663  -29856.66796    214.265854
    8534           0     -3043.581055   -558.151367  -29856.66796    234.019577
    8535           0     -2954.035645   -921.190674  -29856.66796    256.336945
    8536           0     -3088.683105   -186.960663  -29481.10937    210.072952
    8537           0     -3043.581055   -558.151367  -29481.10937    235.223373
    8538           0     -2954.035645   -921.190674  -29481.10937    254.582748
    8539           0     -3088.683105   -186.960663  -29105.55468    207.371414
    8540           0     -3043.581055   -558.151367  -29105.55468    236.857407
    8541           0     -2954.035645   -921.190674  -29105.55468    252.099884
    8542           0     -3088.683105   -186.960663  -28729.99804    205.987427
    8543           0     -3043.581055   -558.151367  -28729.99804    238.786713
    8544           0     -2954.035645   -921.190674  -28729.99804    248.828308
    8545           0     -3088.683105   -186.960663  -28354.44140    205.841919
    8546           0     -3043.581055   -558.151367  -28354.44140    240.796188
    8547           0     -2954.035645   -921.190674  -28354.44140    245.006638
    8548           0     -3088.683105   -186.960663  -27978.88867    206.742584
    8549           0     -3043.581055   -558.151367  -27978.89062    242.798065
    8550           0     -2954.035645   -921.190674  -27978.89062    240.674332
    8551           0     -3088.683105   -186.960663  -27603.33398    208.537918
    8552           0     -3043.581055   -558.151367  -27603.33593    244.672775
    8553           0     -2954.035645   -921.190674  -27603.33593    236.022293
    8554           0     -3088.683105   -186.960663  -27227.77929    211.041763
    8555           0     -3043.581055   -558.151306  -27227.77929    246.381119
    8556           0     -2954.035645   -921.190674  -27227.77929    231.120590
    8557           0     -3088.683105   -186.960663  -26852.22265    214.099457
    8558           0     -3043.581055   -558.151306  -26852.22265    247.868164
    8559           0     -2954.035645   -921.190674  -26852.22265    226.112656
    8560           0     -3088.683105   -186.960663  -26476.66796    217.557602
    8561           0     -3043.581055   -558.151306  -26476.66796    249.127304
    8562           0     -2954.035645   -921.190674  -26476.66796    221.064560
    8563           0     -3088.683105   -186.960663  -26101.11132    221.289703
    8564           0     -3043.581055   -558.151306  -26101.11132    250.141541
    8565           0     -2954.035645   -921.190674  -26101.11132    216.078232
    8566           0     -3088.683105   -186.960663  -25725.55468    225.182892
    8567           0     -3043.581055   -558.151306  -25725.55664    250.921631
    8568           0     -2954.035645   -921.190674  -25725.55664    211.202103
    8569           0     -3088.683105   -186.960648  -25349.99804    229.147720
    8570           0     -3043.581055   -558.151245  -25350.00000    251.471176
    8571           0     -2954.035645   -921.190674  -25349.99804    206.499878
    8572           0     -3088.683105   -186.960632  -24974.44140    233.107498
    8573           0     -3043.581055   -558.151245  -24974.44140    251.808090
    8574           0     -2954.035645   -921.190552  -24974.44140    201.999863
    8575           0     -3088.683105   -186.960632  -24598.88671    237.003525
    8576           0     -3043.581055   -558.151245  -24598.88671    251.944977
    8577           0     -2954.035645   -921.190552  -24598.88671    197.735229
    8578           0     -3088.683105   -186.960632  -24223.33398    240.787262
    8579           0     -3043.581055   -558.151245  -24223.33398    251.901474
    8580           0     -2954.035645   -921.190552  -24223.33398    193.714981
    8581           0     -3088.683105   -186.960632  -23847.77734    244.422714
    8582           0     -3043.581055   -558.151245  -23847.77734    251.692871
    8583           0     -2954.035645   -921.190552  -23847.77734    189.948654
    8584           0     -3088.683105   -186.960632  -23472.22070    247.880707
    8585           0     -3043.581055   -558.151245  -23472.21875    251.337723
    8586           0     -2954.035645   -921.190552  -23472.22070    186.429565
    8587           0     -3088.683105   -186.960632  -23096.66406    251.140991
    8588           0     -3043.581055   -558.151184  -23096.66015    250.850754
    8589           0     -2954.035645   -921.190552  -23096.66406    183.149475
    8590           0     -3088.683105   -186.960632  -22721.10937    254.186447
    8591           0     -3043.581055   -558.151184  -22721.10546    250.248199
    8592           0     -2954.035645   -921.190552  -22721.10937    180.091522
    8593           0     -3088.683105   -186.960632  -22345.55468    257.006378
    8594           0     -3043.581055   -558.151184  -22345.55273    249.543015
    8595           0     -2954.035645   -921.190552  -22345.55273    177.235992
    8596           0     -3088.683105   -186.960632  -21970.00000    259.592590
    8597           0     -3043.581055   -558.151184  -21969.99804    248.748581
    8598           0     -2954.035645   -921.190552  -21970.00000    174.558182
    8599           0     -3088.683105   -186.960632  -21594.44335    261.939423
    8600           0     -3043.581055   -558.151184  -21594.44335    247.875626
    8601           0     -2954.035645   -921.190552  -21594.44531    172.032715
    8602           0     -3088.683105   -186.960632  -21218.88867    264.043823
    8603           0     -3043.581055   -558.151184  -21218.88867    246.935165
    8604           0     -2954.035645   -921.190552  -21218.88867    169.631805
    8605           0     -3088.683105   -186.960632  -20843.33203    265.902466
    8606           0     -3043.581055   -558.151184  -20843.33203    245.935379
    8607           0     -2954.035645   -921.190552  -20843.33203    167.327667
    8608           0     -3088.683105   -186.960602  -20467.77734    267.516205
    8609           0     -3043.581055   -558.151184  -20467.77929    244.885147
    8610           0     -2954.035645   -921.190552  -20467.77734    165.092361
    8611           0     -3088.683105   -186.960602  -20092.22265    268.881866
    8612           0     -3043.581055   -558.151123  -20092.22265    243.792145
    8613           0     -2954.035645   -921.190552  -20092.22265    162.898621
    8614           0     -3088.683105   -186.960602  -19716.66796    269.999664
    8615           0     -3043.581055   -558.151123  -19716.66601    242.660446
    8616           0     -2954.035645   -921.190552  -19716.66796    160.719574
    8617           0     -3088.683105   -186.960602  -19341.11328    270.870667
    8618           0     -3043.581055   -558.151123  -19341.11328    241.496857
    8619           0     -2954.035645   -921.190552  -19341.11328    158.530594
    8620           0     -3088.683105   -186.960602  -18965.55468    271.493774
    8621           0     -3043.581055   -558.151123  -18965.55468    240.305008
    8622           0     -2954.035645   -921.190552  -18965.55468    156.308746
    8623           0     -3088.683105   -186.960602  -18590.00000    271.868835
    8624           0     -3043.581055   -558.151123  -18590.00000    239.089188
    8625           0     -2954.035645   -921.190552  -18590.00000    154.032776
    8626           0     -3088.683105   -186.960587  -18214.44531    271.994904
    8627           0     -3043.581055   -558.151123  -18214.44531    237.852234
    8628           0     -2954.035645   -921.190552  -18214.44531    151.683411
    8629           0     -3088.683105   -186.960571  -17838.88867    271.871094
    8630           0     -3043.581055   -558.151123  -17838.88867    236.596786
    8631           0     -2954.035645   -921.190552  -17838.88867    149.243622
    8632           0     -3088.683105   -186.960571  -17463.33203    271.495544
    8633           0     -3043.581055   -558.151123  -17463.33203    235.324570
    8634           0     -2954.035645   -921.190552  -17463.33203    146.698669
    8635           0     -3088.683105   -186.960571  -17087.77734    270.866150
    8636           0     -3043.581055   -558.151123  -17087.77929    234.036911
    8637           0     -2954.035645   -921.190552  -17087.77734    144.036316
    8638           0     -3088.683105   -186.960571  -16712.22265    269.979950
    8639           0     -3043.581055   -558.151123  -16712.22265    232.734421
    8640           0     -2954.035645   -921.190552  -16712.22265    141.246719
    8641           0     -3088.683105   -186.960571  -16336.66796    268.833679
    8642           0     -3043.581055   -558.151123  -16336.66992    231.416809
    8643           0     -2954.035645   -921.190552  -16336.66796    138.322403
    8644           0     -3088.683105   -186.960571  -15961.10839    267.422852
    8645           0     -3043.581055   -558.151123  -15961.10742    230.084061
    8646           0     -2954.035645   -921.190552  -15961.10937    135.260345
    8647           0     -3088.683105   -186.960571  -15585.55273    265.742920
    8648           0     -3043.581055   -558.151062  -15585.55078    228.734436
    8649           0     -2954.035645   -921.190552  -15585.55273    132.058807
    8650           0     -3088.683105   -186.960571  -15209.99902    263.787506
    8651           0     -3043.581055   -558.151062  -15209.99902    227.366180
    8652           0     -2954.035645   -921.190552  -15209.99902    128.721252
    8653           0     -3088.683105   -186.960571  -14834.44335    261.550232
    8654           0     -3043.581055   -558.151062  -14834.44335    225.976212
    8655           0     -2954.035645   -921.190552  -14834.44335    125.253433
    8656           0     -3088.683105   -186.960571  -14458.88769    259.023193
    8657           0     -3043.581055   -558.151062  -14458.88769    224.561295
    8658           0     -2954.035645   -921.190552  -14458.88769    121.668060
    8659           0     -3088.683105   -186.960571  -14083.33203    256.198334
    8660           0     -3043.581055   -558.151062  -14083.33105    223.115936
    8661           0     -2954.035645   -921.190552  -14083.33203    117.980171
    8662           0     -3088.683105   -186.960571  -13707.77636    253.065247
    8663           0     -3043.581055   -558.151062  -13707.77539    221.636200
    8664           0     -2954.035645   -921.190552  -13707.77636    114.214828
    8665           0     -3088.683105   -186.960556  -13332.22460    249.613480
    8666           0     -3043.581055   -558.151062  -13332.22460    220.111877
    8667           0     -2954.035645   -921.190491  -13332.22168    110.399818
    8668           0     -3088.683105   -186.960541  -12956.67187    245.832458
    8669           0     -3043.581055   -558.151001  -12956.67382    218.540817
    8670           0     -2954.035645   -921.190430  -12956.66992    106.575760
    8671           0     -3088.683105   -186.960541  -12581.11718    241.709045
    8672           0     -3043.581055   -558.151001  -12581.11816    216.900223
    8673           0     -2954.035645   -921.190430  -12581.11425    102.789948
    8674           0     -3088.683105   -186.960541  -12205.55957    237.228256
    8675           0     -3043.581055   -558.151001  -12205.56054    215.195313
    8676           0     -2954.035645   -921.190430  -12205.55664     99.104897
    8677           0     -3088.683105   -186.960541  -11830.00097    232.376312
    8678           0     -3043.581055   -558.151001  -11830.00097    213.400681
    8679           0     -2954.035645   -921.190430  -11830.00000     95.585373
    8680           0     -3088.683105   -186.960541  -11454.44140    227.137726
    8681           0     -3043.581055   -558.151001  -11454.43945    211.504959
    8682           0     -2954.035645   -921.190430  -11454.44335     92.324089
    8683           0     -3088.683105   -186.960541  -11078.88867    221.496780
    8684           0     -3043.581055   -558.151001  -11078.88769    209.488190
    8685           0     -2954.035645   -921.190430  -11078.88867     89.411240
    8686           0     -3088.683105   -186.960541  -10703.33203    215.435669
    8687           0     -3043.581055   -558.151001  -10703.33105    207.330261
    8688           0     -2954.035645   -921.190430  -10703.33203     86.956047
    8689           0     -3088.683105   -186.960541  -10327.77539    208.938797
    8690           0     -3043.581055   -558.150940  -10327.77539    205.006790
    8691           0     -2954.035645   -921.190430  -10327.77636     85.061302
    8692           0     -3088.683105   -186.960541  -9952.218750    201.989929
    8693           0     -3043.581055   -558.150940  -9952.218750    202.490036
    8694           0     -2954.035645   -921.190430  -9952.219727     83.833618
    8695           0     -3088.683105   -186.960541  -9576.664063    194.573853
    8696           0     -3043.581055   -558.150940  -9576.662109    199.750687
    8697           0     -2954.035645   -921.190430  -9576.664063     83.357368
    8698           0     -3088.683105   -186.960541  -9201.111328    186.678879
    8699           0     -3043.581055   -558.150940  -9201.111328    196.754318
    8700           0     -2954.035645   -921.190430  -9201.111328     83.690018
    8701           0     -3088.683105   -186.960541  -8825.557617    178.298431
    8702           0     -3043.581055   -558.150940  -8825.559570    193.464294
    8703           0     -2954.035645   -921.190430  -8825.556641     84.846756
    8704           0     -3088.683105   -186.960526  -8450.000977    169.431412
    8705           0     -3043.581055   -558.150879  -8450.000977    189.839432
    8706           0     -2954.035645   -921.190430  -8450.000977     86.801201
    8707           0     -3088.683105   -186.960510  -8074.443359    160.090073
    8708           0     -3043.581055   -558.150879  -8074.441406    185.840073
    8709           0     -2954.035645   -921.190430  -8074.443359     89.476440
    8710           0     -3088.683105   -186.960510  -7698.890137    150.302277
    8711           0     -3043.581055   -558.150879  -7698.890625    181.420685
    8712           0     -2954.035645   -921.190430  -7698.889648     92.760780
    8713           0     -3088.683105   -186.960510  -7323.333496    140.123993
    8714           0     -3043.581055   -558.150879  -7323.333984    176.541306
    8715           0     -2954.035645   -921.190430  -7323.333984     96.502861
    8716           0     -3088.683105   -186.960510  -6947.776855    129.650467
    8717           0     -3043.581055   -558.150879  -6947.776367    171.162521
    8718           0     -2954.035645   -921.190430  -6947.777344    100.534279
    8719           0     -3088.683105   -186.960510  -6572.224609    119.043571
    8720           0     -3043.581055   -558.150879  -6572.225098    165.257904
    8721           0     -2954.035645   -921.190430  -6572.223633    104.657936
    8722           0     -3088.683105   -186.960510  -6196.666992    108.561768
    8723           0     -3043.581055   -558.150879  -6196.667480    158.813705
    8724           0     -2954.035645   -921.190430  -6196.667480    108.674751
    8725           0     -3088.683105   -186.960510  -5821.109863     98.621971
    8726           0     -3043.581055   -558.150879  -5821.109375    151.850372
    8727           0     -2954.035645   -921.190308  -5821.110840    112.358406
    8728           0     -3088.683105   -186.960510  -5445.557129     89.863609
    8729           0     -3043.581055   -558.150879  -5445.558105    144.428589
    8730           0     -2954.035645   -921.190308  -5445.556641    115.493797
    8731           0     -3088.683105   -186.960510  -5070.000000     83.211655
    8732           0     -3043.581055   -558.150879  -5070.000488    136.687943
    8733           0     -2954.035645   -921.190308  -5070.000488    117.836327
    8734           0     -3088.683105   -186.960510  -4694.442871     79.817657
    8735           0     -3043.581055   -558.150879  -4694.442383    128.874985
    8736           0     -2954.035645   -921.190308  -4694.443848    119.170517
    8737           0     -3088.683105   -186.960510  -4318.891113     80.743416
    8738           0     -3043.581055   -558.150879  -4318.892578    121.404846
    8739           0     -2954.035645   -921.190308  -4318.890137    119.254723
    8740           0     -3088.683105   -186.960510  -3943.334229     86.482491
    8741           0     -3043.581055   -558.150879  -3943.334473    114.924171
    8742           0     -2954.035645   -921.190308  -3943.333984    117.922829
    8743           0     -3088.683105   -186.960495  -3567.776611     96.711044
    8744           0     -3043.581055   -558.150818  -3567.776123    110.318352
    8745           0     -2954.035645   -921.190308  -3567.777588    114.998260
    8746           0     -3088.683105   -186.960480  -3192.223389    110.711876
    8747           0     -3043.581055   -558.150818  -3192.224365    108.771988
    8748           0     -2954.035645   -921.190308  -3192.222412    110.508331
    8749           0     -3088.683105   -186.960480  -2816.666016    127.448784
    8750           0     -3043.581055   -558.150818  -2816.666016    111.207382
    8751           0     -2954.035645   -921.190308  -2816.666016    104.509094
    8752           0     -3088.683105   -186.960480  -2441.108887    146.595520
    8753           0     -3043.581055   -558.150818  -2441.107422    118.766815
    8754           0     -2954.035645   -921.190308  -2441.109863     97.638504
    8755           0     -3088.683105   -186.960480  -2065.555420    166.539383
    8756           0     -3043.581055   -558.150818  -2065.555420    130.437958
    8757           0     -2954.035645   -921.190308  -2065.554932     90.494186
    8758           0     -3088.683105   -186.960480  -1689.998901    189.183609
    8759           0     -3043.581055   -558.150818  -1689.999390    148.094955
    8760           0     -2954.035645   -921.190308  -1689.998901     85.420006
    8761           0     -3088.683105   -186.960480  -1314.443848    208.611221
    8762           0     -3043.581055   -558.150818  -1314.444336    165.506668
    8763           0     -2954.035645   -921.190308  -1314.444336     82.839470
    8764           0     -3088.683105   -186.960480   -938.891418    235.897339
    8765           0     -3043.581055   -558.150757   -938.893433    192.024246
    8766           0     -2954.035645   -921.190308   -938.890381     87.347847
    8767           0     -3088.683105   -186.960480   -563.332825    252.107178
    8768           0     -3043.581055   -558.150757   -563.333801    210.038330
    8769           0     -2954.035645   -921.190308   -563.332825     93.857162
    8770           0     -3088.683105   -186.960480   -187.775757    268.741272
    8771           0     -3043.581055   -558.150757   -187.775253    226.995667
    8772           0     -2954.035645   -921.190308   -187.776764     97.888596
    8773           0     -2821.431641  -1270.631104  -33612.22265    346.023346
    8774           0     -2647.742676  -1601.387085  -33612.22265    462.263672
    8775           0     -2435.458008  -1908.801758  -33612.22265    501.913544
    8776           0     -2187.674316  -2188.392578  -33612.22265    484.313019
    8777           0     -1908.001831  -2436.084717  -33612.22265    440.779663
    8778           0     -1600.518066  -2648.268066  -33612.22265    389.062256
    8779           0     -1269.705933  -2821.848145  -33612.22265    338.025452
    8780           0      -920.385498  -2954.297119  -33612.22265    293.342926
    8781           0      -557.650330  -3043.683105  -33612.22265    258.123810
    8782           0      -186.789215  -3088.704102  -33612.22265    234.543076
    8783           0     -2821.431641  -1270.631348  -33236.66796    326.518585
    8784           0     -2647.741943  -1601.388184  -33236.66796    446.042969
    8785           0     -2435.456787  -1908.803345  -33236.66796    491.630615
    8786           0     -2187.672363  -2188.394531  -33236.66796    484.338867
    8787           0     -1907.999390  -2436.086426  -33236.66796    445.049377
    8788           0     -1600.515381  -2648.269775  -33236.66796    395.913483
    8789           0     -1269.703369  -2821.849365  -33236.66796    345.928009
    8790           0      -920.383179  -2954.297852  -33236.66796    301.810516
    8791           0      -557.648499  -3043.683594  -33236.66796    266.815002
    8792           0      -186.788834  -3088.704102  -33236.66796    243.178619
    8793           0     -2821.431641  -1270.631348  -32861.10937    312.498718
    8794           0     -2647.741943  -1601.388184  -32861.10937    429.001160
    8795           0     -2435.456787  -1908.803223  -32861.10937    475.983673
    8796           0     -2187.672607  -2188.394531  -32861.10937    471.258698
    8797           0     -1907.999512  -2436.086426  -32861.10937    436.645630
    8798           0     -1600.515503  -2648.269531  -32861.10937    389.057556
    8799           0     -1269.703613  -2821.849121  -32861.10937    341.233002
    8800           0      -920.383301  -2954.297852  -32861.10937    298.285858
    8801           0      -557.648560  -3043.683594  -32861.10937    264.469147
    8802           0      -186.788834  -3088.704102  -32861.11328    241.317932
    8803           0     -2821.431641  -1270.631348  -32485.55664    297.012604
    8804           0     -2647.741943  -1601.388184  -32485.55664    395.976898
    8805           0     -2435.456787  -1908.803223  -32485.55664    445.864410
    8806           0     -2187.672607  -2188.394531  -32485.55664    448.510742
    8807           0     -1907.999512  -2436.086426  -32485.55664    419.955170
    8808           0     -1600.515503  -2648.269531  -32485.55664    377.186096
    8809           0     -1269.703613  -2821.849121  -32485.55664    332.211609
    8810           0      -920.383301  -2954.297852  -32485.55664    291.973602
    8811           0      -557.648560  -3043.683594  -32485.55664    259.789825
    8812           0      -186.788834  -3088.704102  -32485.55664    237.779495
    8813           0     -2821.431641  -1270.631348  -32110.00000    289.951965
    8814           0     -2647.741943  -1601.387939  -32110.00000    378.101715
    8815           0     -2435.456787  -1908.803223  -32110.00000    425.945068
    8816           0     -2187.672607  -2188.394531  -32110.00000    432.561920
    8817           0     -1907.999512  -2436.086426  -32110.00000    408.591583
    8818           0     -1600.515503  -2648.269531  -32110.00000    369.093872
    8819           0     -1269.703613  -2821.849121  -32110.00000    326.485870
    8820           0      -920.383362  -2954.297852  -32110.00000    287.961121
    8821           0      -557.648621  -3043.683594  -32110.00000    257.149078
    8822           0      -186.788834  -3088.704102  -32110.00000    235.808228
    8823           0     -2821.431641  -1270.631348  -31734.44531    283.346558
    8824           0     -2647.741943  -1601.387939  -31734.44531    355.496674
    8825           0     -2435.456787  -1908.803223  -31734.44531    402.162842
    8826           0     -2187.672607  -2188.394287  -31734.44531    413.890137
    8827           0     -1907.999756  -2436.086426  -31734.44531    394.941406
    8828           0     -1600.515625  -2648.269531  -31734.44531    359.445343
    8829           0     -1269.703613  -2821.849121  -31734.44531    319.547607
    8830           0      -920.383423  -2954.297852  -31734.44531    283.096008
    8831           0      -557.648682  -3043.683594  -31734.44531    253.777283
    8832           0      -186.788834  -3088.704102  -31734.44531    233.303986
    8833           0     -2821.431641  -1270.631348  -31358.88867    280.088928
    8834           0     -2647.741943  -1601.387939  -31358.88867    339.001221
    8835           0     -2435.456787  -1908.803223  -31358.88867    380.833374
    8836           0     -2187.672607  -2188.394287  -31358.88867    395.932312
    8837           0     -1907.999756  -2436.086426  -31358.88867    381.879974
    8838           0     -1600.515625  -2648.269531  -31358.88867    350.121460
    8839           0     -1269.703613  -2821.849121  -31358.89062    313.026123
    8840           0      -920.383423  -2954.297852  -31358.89062    278.534424
    8841           0      -557.648682  -3043.683594  -31358.89062    250.680161
    8842           0      -186.788879  -3088.704102  -31358.89062    231.008133
    8843           0     -2821.431641  -1270.631348  -30983.33398    277.308167
    8844           0     -2647.741943  -1601.387939  -30983.33398    322.968964
    8845           0     -2435.456787  -1908.803101  -30983.33398    360.131470
    8846           0     -2187.672852  -2188.394287  -30983.33398    377.957550
    8847           0     -1907.999756  -2436.086426  -30983.33398    368.469879
    8848           0     -1600.515625  -2648.269531  -30983.33398    340.658081
    8849           0     -1269.703735  -2821.849121  -30983.33398    306.371613
    8850           0      -920.383484  -2954.297852  -30983.33398    273.965332
    8851           0      -557.648743  -3043.683594  -30983.33398    247.546448
    8852           0      -186.788940  -3088.704102  -30983.33398    228.722290
    8853           0     -2821.431641  -1270.631348  -30607.77734    275.455017
    8854           0     -2647.741943  -1601.387939  -30607.77734    310.107849
    8855           0     -2435.457031  -1908.802979  -30607.77734    340.613953
    8856           0     -2187.672852  -2188.394043  -30607.77734    360.047821
    8857           0     -1907.999878  -2436.086182  -30607.77734    354.969513
    8858           0     -1600.515869  -2648.269287  -30607.77734    331.076233
    8859           0     -1269.703857  -2821.849121  -30607.77734    299.754730
    8860           0      -920.383606  -2954.297852  -30607.77734    269.435303
    8861           0      -557.648804  -3043.683594  -30607.77734    244.488678
    8862           0      -186.788940  -3088.704102  -30607.77734    226.482208
    8863           0     -2821.431641  -1270.631348  -30232.22265    273.446777
    8864           0     -2647.741943  -1601.387939  -30232.22265    298.720520
    8865           0     -2435.457031  -1908.802979  -30232.22265    322.522552
    8866           0     -2187.672852  -2188.394043  -30232.22265    342.496887
    8867           0     -1907.999878  -2436.086182  -30232.22265    341.306641
    8868           0     -1600.515869  -2648.269287  -30232.22265    321.407806
    8869           0     -1269.703979  -2821.849121  -30232.22265    293.090271
    8870           0      -920.383667  -2954.297607  -30232.22265    264.947723
    8871           0      -557.648865  -3043.683350  -30232.22265    241.466797
    8872           0      -186.788940  -3088.704102  -30232.22265    224.289841
    8873           0     -2821.431641  -1270.631348  -29856.66796    271.292999
    8874           0     -2647.741943  -1601.387939  -29856.66796    289.373077
    8875           0     -2435.457031  -1908.802979  -29856.66796    305.667236
    8876           0     -2187.672852  -2188.394043  -29856.66796    325.250549
    8877           0     -1908.000000  -2436.086182  -29856.66796    327.576965
    8878           0     -1600.515991  -2648.269287  -29856.66796    311.588776
    8879           0     -1269.704102  -2821.849121  -29856.66796    286.410828
    8880           0      -920.383667  -2954.297607  -29856.66796    260.480896
    8881           0      -557.648865  -3043.683350  -29856.66796    238.503799
    8882           0      -186.788940  -3088.704102  -29856.66796    222.140930
    8883           0     -2821.431641  -1270.631348  -29481.10937    268.604065
    8884           0     -2647.741943  -1601.387817  -29481.10937    281.373840
    8885           0     -2435.457031  -1908.802979  -29481.10937    290.335907
    8886           0     -2187.672852  -2188.394043  -29481.10937    308.500580
    8887           0     -1908.000000  -2436.085938  -29481.10937    313.783295
    8888           0     -1600.516113  -2648.269287  -29481.10937    301.659485
    8889           0     -1269.704102  -2821.849121  -29481.10937    279.670563
    8890           0      -920.383728  -2954.297607  -29481.10937    256.047546
    8891           0      -557.648926  -3043.683350  -29481.10937    235.584534
    8892           0      -186.788940  -3088.704102  -29481.10937    220.046860
    8893           0     -2821.431641  -1270.631348  -29105.55468    265.395844
    8894           0     -2647.742188  -1601.387817  -29105.55468    274.727356
    8895           0     -2435.457031  -1908.802979  -29105.55468    276.346954
    8896           0     -2187.672852  -2188.394043  -29105.55468    292.281677
    8897           0     -1908.000000  -2436.085938  -29105.55468    300.023346
    8898           0     -1600.516113  -2648.269043  -29105.55468    291.598297
    8899           0     -1269.704102  -2821.849121  -29105.55468    272.881409
    8900           0      -920.383789  -2954.297607  -29105.55468    251.624985
    8901           0      -557.648987  -3043.683350  -29105.55468    232.719498
    8902           0      -186.788940  -3088.704102  -29105.55468    218.003311
    8903           0     -2821.431641  -1270.631348  -28729.99804    261.575653
    8904           0     -2647.742188  -1601.387817  -28730.00000    269.055725
    8905           0     -2435.457031  -1908.802856  -28730.00000    263.829102
    8906           0     -2187.672852  -2188.394043  -28730.00000    276.683929
    8907           0     -1908.000244  -2436.085938  -28729.99804    286.318817
    8908           0     -1600.516113  -2648.269043  -28729.99804    281.446320
    8909           0     -1269.704102  -2821.848877  -28729.99804    266.015228
    8910           0      -920.383850  -2954.297607  -28729.99804    247.215454
    8911           0      -557.648987  -3043.683350  -28729.99804    229.898148
    8912           0      -186.788940  -3088.704102  -28729.99804    216.018112
    8913           0     -2821.431641  -1270.631348  -28354.44335    257.207642
    8914           0     -2647.742188  -1601.387817  -28354.44335    264.238892
    8915           0     -2435.457031  -1908.802734  -28354.44335    252.647797
    8916           0     -2187.673096  -2188.394043  -28354.44140    261.768280
    8917           0     -1908.000244  -2436.085938  -28354.44140    272.751617
    8918           0     -1600.516113  -2648.269043  -28354.44140    271.210846
    8919           0     -1269.704224  -2821.848877  -28354.44140    259.082336
    8920           0      -920.383972  -2954.297607  -28354.44140    242.798965
    8921           0      -557.649048  -3043.683350  -28354.43945    227.124298
    8922           0      -186.788940  -3088.704102  -28354.44140    214.088821
    8923           0     -2821.431641  -1270.631348  -27978.88867    252.321045
    8924           0     -2647.742188  -1601.387817  -27978.89062    260.045044
    8925           0     -2435.457031  -1908.802734  -27978.89062    242.818268
    8926           0     -2187.673096  -2188.394043  -27978.89062    247.582535
    8927           0     -1908.000244  -2436.085938  -27978.88671    259.355225
    8928           0     -1600.516113  -2648.269043  -27978.88671    260.936157
    8929           0     -1269.704346  -2821.848877  -27978.88671    252.073303
    8930           0      -920.384033  -2954.297607  -27978.88671    238.372482
    8931           0      -557.649109  -3043.683350  -27978.88671    224.387344
    8932           0      -186.788940  -3088.704102  -27978.88671    212.219849
    8933           0     -2821.431641  -1270.631348  -27603.33398    247.001953
    8934           0     -2647.742188  -1601.387695  -27603.33398    256.357269
    8935           0     -2435.457031  -1908.802734  -27603.33398    234.222275
    8936           0     -2187.673096  -2188.393799  -27603.33398    234.179276
    8937           0     -1908.000244  -2436.085938  -27603.33398    246.191040
    8938           0     -1600.516357  -2648.269043  -27603.33398    250.643600
    8939           0     -1269.704346  -2821.848877  -27603.33398    245.002991
    8940           0      -920.384033  -2954.297607  -27603.33593    233.921982
    8941           0      -557.649109  -3043.683350  -27603.33593    221.685379
    8942           0      -186.788940  -3088.704102  -27603.33593    210.408691
    8943           0     -2821.431641  -1270.631226  -27227.77734    241.319733
    8944           0     -2647.742188  -1601.387695  -27227.77734    253.033554
    8945           0     -2435.457031  -1908.802734  -27227.77734    226.808136
    8946           0     -2187.673096  -2188.393799  -27227.77734    221.586472
    8947           0     -1908.000366  -2436.085938  -27227.77734    233.294312
    8948           0     -1600.516479  -2648.269043  -27227.77734    240.375198
    8949           0     -1269.704346  -2821.848877  -27227.77929    237.877106
    8950           0      -920.384094  -2954.297607  -27227.77929    229.444595
    8951           0      -557.649170  -3043.683350  -27227.77929    219.006973
    8952           0      -186.788940  -3088.704102  -27227.77929    208.656189
    8953           0     -2821.431641  -1270.631226  -26852.22265    235.359238
    8954           0     -2647.742188  -1601.387695  -26852.22265    249.990692
    8955           0     -2435.457031  -1908.802734  -26852.22265    220.459991
    8956           0     -2187.673340  -2188.393799  -26852.22265    209.839432
    8957           0     -1908.000488  -2436.085938  -26852.22265    220.710205
    8958           0     -1600.516479  -2648.269043  -26852.22265    230.157471
    8959           0     -1269.704468  -2821.848877  -26852.22265    230.715179
    8960           0      -920.384155  -2954.297607  -26852.22265    224.933044
    8961           0      -557.649231  -3043.683350  -26852.22265    216.347076
    8962           0      -186.788940  -3088.704102  -26852.22265    206.957321
    8963           0     -2821.431641  -1270.631226  -26476.66796    229.192490
    8964           0     -2647.742188  -1601.387695  -26476.66796    247.146332
    8965           0     -2435.457031  -1908.802734  -26476.66796    215.092545
    8966           0     -2187.673340  -2188.393799  -26476.66796    198.951614
    8967           0     -1908.000488  -2436.085938  -26476.66796    208.469086
    8968           0     -1600.516479  -2648.269043  -26476.66796    220.026016
    8969           0     -1269.704468  -2821.848877  -26476.66796    223.529205
    8970           0      -920.384155  -2954.297607  -26476.66796    220.389282
    8971           0      -557.649292  -3043.683350  -26476.66796    213.695343
    8972           0      -186.789001  -3088.704102  -26476.66796    205.306824
    8973           0     -2821.431641  -1270.631226  -26101.11132    222.893448
    8974           0     -2647.742188  -1601.387695  -26101.10937    244.450714
    8975           0     -2435.457275  -1908.802612  -26101.10937    210.593735
    8976           0     -2187.673340  -2188.393555  -26101.10937    188.942490
    8977           0     -1908.000488  -2436.085693  -26101.10937    196.607300
    8978           0     -1600.516479  -2648.269043  -26101.11132    210.009903
    8979           0     -1269.704468  -2821.848877  -26101.11132    216.344940
    8980           0      -920.384277  -2954.297607  -26101.11132    215.812912
    8981           0      -557.649414  -3043.683350  -26101.11132    211.045639
    8982           0      -186.789063  -3088.704102  -26101.11132    203.698181
    8983           0     -2821.431641  -1270.631226  -25725.55468    216.522995
    8984           0     -2647.742188  -1601.387695  -25725.55664    241.859879
    8985           0     -2435.457275  -1908.802490  -25725.55664    206.867752
    8986           0     -2187.673340  -2188.393555  -25725.55664    179.812180
    8987           0     -1908.000732  -2436.085449  -25725.55664    185.149582
    8988           0     -1600.516602  -2648.269043  -25725.55859    200.138763
    8989           0     -1269.704468  -2821.848633  -25725.55859    209.178772
    8990           0      -920.384277  -2954.297607  -25725.55859    211.209930
    8991           0      -557.649414  -3043.683350  -25725.55859    208.389816
    8992           0      -186.789063  -3088.704102  -25725.55664    202.121948
    8993           0     -2821.431641  -1270.631226  -25349.99804    210.137543
    8994           0     -2647.742188  -1601.387695  -25350.00000    239.347931
    8995           0     -2435.457275  -1908.802490  -25350.00000    203.811066
    8996           0     -2187.673340  -2188.393555  -25350.00000    171.559235
    8997           0     -1908.000732  -2436.085449  -25350.00000    174.121017
    8998           0     -1600.516602  -2648.268799  -25350.00000    190.436676
    8999           0     -1269.704590  -2821.848633  -25350.00000    202.053894
    9000           0      -920.384277  -2954.297607  -25350.00000    206.584610
    9001           0      -557.649414  -3043.683350  -25350.00000    205.721756
    9002           0      -186.789063  -3088.704102  -25350.00000    200.567596
    9003           0     -2821.431641  -1270.631104  -24974.44335    203.783936
    9004           0     -2647.742188  -1601.387695  -24974.44335    236.894516
    9005           0     -2435.457520  -1908.802490  -24974.44140    201.332733
    9006           0     -2187.673340  -2188.393555  -24974.44140    164.169525
    9007           0     -1908.000732  -2436.085449  -24974.43945    163.542618
    9008           0     -1600.516846  -2648.268799  -24974.43945    180.928925
    9009           0     -1269.704712  -2821.848633  -24974.43945    194.989212
    9010           0      -920.384277  -2954.297363  -24974.43945    201.946259
    9011           0      -557.649414  -3043.683350  -24974.43945    203.035629
    9012           0      -186.789063  -3088.704102  -24974.44140    199.023254
    9013           0     -2821.431641  -1270.631104  -24598.89062    197.502975
    9014           0     -2647.742188  -1601.387451  -24598.89257    234.489182
    9015           0     -2435.457520  -1908.802490  -24598.89257    199.344055
    9016           0     -2187.673340  -2188.393555  -24598.89257    157.622894
    9017           0     -1908.000732  -2436.085449  -24598.89062    153.433411
    9018           0     -1600.516846  -2648.268799  -24598.89062    171.636444
    9019           0     -1269.704834  -2821.848633  -24598.89062    188.006210
    9020           0      -920.384399  -2954.297363  -24598.89062    197.302673
    9021           0      -557.649475  -3043.683105  -24598.89062    200.327011
    9022           0      -186.789063  -3088.704102  -24598.88867    197.476257
    9023           0     -2821.431641  -1270.631104  -24223.33398    191.327759
    9024           0     -2647.742188  -1601.387451  -24223.33593    232.124924
    9025           0     -2435.457520  -1908.802490  -24223.33593    197.766876
    9026           0     -2187.673340  -2188.393555  -24223.33593    151.888229
    9027           0     -1908.000732  -2436.085449  -24223.33593    143.810059
    9028           0     -1600.516846  -2648.268799  -24223.33593    162.579849
    9029           0     -1269.704834  -2821.848633  -24223.33593    181.123413
    9030           0      -920.384521  -2954.297363  -24223.33593    192.664276
    9031           0      -557.649536  -3043.683105  -24223.33593    197.592026
    9032           0      -186.789063  -3088.704102  -24223.33398    195.913269
    9033           0     -2821.431641  -1270.631104  -23847.77734    185.285843
    9034           0     -2647.742188  -1601.387451  -23847.77734    229.800095
    9035           0     -2435.457520  -1908.802490  -23847.77734    196.529541
    9036           0     -2187.673584  -2188.393555  -23847.77734    146.926804
    9037           0     -1908.000854  -2436.085449  -23847.77734    134.687103
    9038           0     -1600.516968  -2648.268799  -23847.77734    153.777191
    9039           0     -1269.704834  -2821.848633  -23847.77734    174.359894
    9040           0      -920.384521  -2954.297363  -23847.77734    188.040222
    9041           0      -557.649536  -3043.683105  -23847.77734    194.827240
    9042           0      -186.789063  -3088.704102  -23847.77734    194.321243
    9043           0     -2821.431641  -1270.631104  -23472.22070    179.398972
    9044           0     -2647.742188  -1601.387451  -23472.21875    227.514603
    9045           0     -2435.457520  -1908.802490  -23472.21875    195.569077
    9046           0     -2187.673584  -2188.393311  -23472.21875    142.690933
    9047           0     -1908.000977  -2436.085449  -23472.21875    126.077637
    9048           0     -1600.517090  -2648.268555  -23472.21875    145.245392
    9049           0     -1269.704834  -2821.848633  -23472.21875    167.732681
    9050           0      -920.384521  -2954.297363  -23472.21875    183.441177
    9051           0      -557.649597  -3043.683105  -23472.21875    192.030334
    9052           0      -186.789063  -3088.704102  -23472.21875    192.686859
    9053           0     -2821.431641  -1270.631104  -23096.66406    173.683746
    9054           0     -2647.742188  -1601.387451  -23096.66210    225.270950
    9055           0     -2435.457520  -1908.802368  -23096.66210    194.830643
    9056           0     -2187.673584  -2188.393311  -23096.66015    139.125900
    9057           0     -1908.000977  -2436.085449  -23096.66015    117.991890
    9058           0     -1600.517090  -2648.268555  -23096.66015    136.999496
    9059           0     -1269.704834  -2821.848633  -23096.66015    161.257477
    9060           0      -920.384644  -2954.297363  -23096.65820    178.874802
    9061           0      -557.649658  -3043.683105  -23096.65820    189.197876
    9062           0      -186.789063  -3088.704102  -23096.66210    190.997406
    9063           0     -2821.431641  -1270.631104  -22721.10937    168.154877
    9064           0     -2647.742188  -1601.387451  -22721.10546    223.072586
    9065           0     -2435.457520  -1908.802246  -22721.10546    194.265549
    9066           0     -2187.673828  -2188.393311  -22721.10546    136.172028
    9067           0     -1908.000977  -2436.085449  -22721.10546    110.441544
    9068           0     -1600.517090  -2648.268555  -22721.10546    129.055283
    9069           0     -1269.705078  -2821.848633  -22721.10546    154.951019
    9070           0      -920.384644  -2954.297363  -22721.10546    174.352783
    9071           0      -557.649658  -3043.683105  -22721.10546    186.329620
    9072           0      -186.789063  -3088.704102  -22721.10742    189.240906
    9073           0     -2821.431641  -1270.631104  -22345.55468    162.821472
    9074           0     -2647.742188  -1601.387451  -22345.55078    220.923584
    9075           0     -2435.457520  -1908.802124  -22345.55078    193.832932
    9076           0     -2187.673828  -2188.393311  -22345.55078    133.763962
    9077           0     -1908.000977  -2436.085449  -22345.55078    103.432808
    9078           0     -1600.517334  -2648.268555  -22345.55078    121.426773
    9079           0     -1269.705078  -2821.848633  -22345.55078    148.827194
    9080           0      -920.384766  -2954.297363  -22345.55078    169.880890
    9081           0      -557.649719  -3043.683105  -22345.55078    183.421814
    9082           0      -186.789063  -3088.704102  -22345.55273    187.406342
    9083           0     -2821.431641  -1270.631104  -21970.00000    157.690903
    9084           0     -2647.742188  -1601.387451  -21969.99804    218.828018
    9085           0     -2435.457520  -1908.802124  -21969.99804    193.496292
    9086           0     -2187.673828  -2188.393066  -21969.99804    131.836319
    9087           0     -1908.001221  -2436.085449  -21969.99609     96.971992
    9088           0     -1600.517334  -2648.268555  -21969.99609    114.124603
    9089           0     -1269.705078  -2821.848633  -21969.99609    142.898499
    9090           0      -920.384888  -2954.297363  -21969.99609    165.467590
    9091           0      -557.649780  -3043.683105  -21969.99414    180.473312
    9092           0      -186.789063  -3088.704102  -21969.99609    185.482758
    9093           0     -2821.431641  -1270.631104  -21594.44531    152.767838
    9094           0     -2647.742188  -1601.387451  -21594.44726    216.790176
    9095           0     -2435.457520  -1908.802124  -21594.44726    193.225937
    9096           0     -2187.673828  -2188.393066  -21594.44531    130.319275
    9097           0     -1908.001221  -2436.085205  -21594.44531     91.059845
    9098           0     -1600.517334  -2648.268555  -21594.44726    107.164337
    9099           0     -1269.705200  -2821.848633  -21594.44531    137.176300
    9100           0      -920.384888  -2954.297363  -21594.44531    161.120377
    9101           0      -557.649841  -3043.683105  -21594.44531    177.483017
    9102           0      -186.789124  -3088.704102  -21594.44335    183.459427
    9103           0     -2821.431641  -1270.631104  -21218.88867    148.055634
    9104           0     -2647.742188  -1601.387451  -21218.88867    214.814102
    9105           0     -2435.457520  -1908.802124  -21218.88867    192.993683
    9106           0     -2187.673828  -2188.393066  -21218.88867    129.150955
    9107           0     -1908.001221  -2436.084961  -21218.88867     85.699158
    9108           0     -1600.517334  -2648.268311  -21218.88867    100.553001
    9109           0     -1269.705322  -2821.848389  -21218.88867    131.671768
    9110           0      -920.384888  -2954.297363  -21218.88867    156.843307
    9111           0      -557.649902  -3043.683105  -21218.88867    174.447510
    9112           0      -186.789169  -3088.704102  -21218.88867    181.328201
    9113           0     -2821.431641  -1270.631104  -20843.33398    143.556183
    9114           0     -2647.742188  -1601.387451  -20843.33398    212.904572
    9115           0     -2435.457520  -1908.802124  -20843.33398    192.778885
    9116           0     -2187.673828  -2188.393066  -20843.33398    128.260849
    9117           0     -1908.001221  -2436.084961  -20843.33398     80.875793
    9118           0     -1600.517334  -2648.268311  -20843.33398     94.306335
    9119           0     -1269.705322  -2821.848389  -20843.33398    126.394707
    9120           0      -920.385010  -2954.297363  -20843.33398    152.642960
    9121           0      -557.649963  -3043.683105  -20843.33398    171.366180
    9122           0      -186.789169  -3088.704102  -20843.33398    179.079727
    9123           0     -2821.431641  -1270.631104  -20467.77929    139.270905
    9124           0     -2647.742432  -1601.387207  -20467.78125    211.062088
    9125           0     -2435.457764  -1908.802124  -20467.78125    192.564514
    9126           0     -2187.673828  -2188.393066  -20467.78125    127.607918
    9127           0     -1908.001343  -2436.084961  -20467.78125     76.573456
    9128           0     -1600.517578  -2648.268311  -20467.78125     88.432022
    9129           0     -1269.705322  -2821.848389  -20467.78125    121.352425
    9130           0      -920.385010  -2954.297363  -20467.78125    148.522629
    9131           0      -557.649963  -3043.683105  -20467.78125    168.235077
    9132           0      -186.789169  -3088.704102  -20467.77929    176.707031
    9133           0     -2821.431641  -1270.631104  -20092.22070    135.200638
    9134           0     -2647.742432  -1601.387207  -20092.21875    209.291260
    9135           0     -2435.457764  -1908.802002  -20092.21875    192.328796
    9136           0     -2187.674072  -2188.393066  -20092.21875    127.098312
    9137           0     -1908.001465  -2436.084961  -20092.21875     72.811424
    9138           0     -1600.517578  -2648.268311  -20092.21875     82.938721
    9139           0     -1269.705444  -2821.848389  -20092.21875    116.555031
    9140           0      -920.385132  -2954.297363  -20092.21875    144.485413
    9141           0      -557.650024  -3043.682861  -20092.21875    165.052917
    9142           0      -186.789169  -3088.704102  -20092.22070    174.202438
    9143           0     -2821.431641  -1270.631104  -19716.66601    131.345413
    9144           0     -2647.742432  -1601.387207  -19716.66601    207.596161
    9145           0     -2435.457764  -1908.802002  -19716.66601    192.054321
    9146           0     -2187.674072  -2188.392822  -19716.66601    126.712585
    9147           0     -1908.001465  -2436.084961  -19716.66601     69.513283
    9148           0     -1600.517700  -2648.268311  -19716.66796     77.838196
    9149           0     -1269.705566  -2821.848389  -19716.66796    112.007805
    9150           0      -920.385132  -2954.297363  -19716.66796    140.533401
    9151           0      -557.650085  -3043.682861  -19716.66796    161.816544
    9152           0      -186.789169  -3088.704102  -19716.66796    171.559189
    9153           0     -2821.431641  -1270.631104  -19341.11328    127.708725
    9154           0     -2647.742432  -1601.387207  -19341.11328    205.974030
    9155           0     -2435.457764  -1908.802002  -19341.11328    191.734680
    9156           0     -2187.674072  -2188.392822  -19341.11328    126.398376
    9157           0     -1908.001465  -2436.084961  -19341.11523     66.673660
    9158           0     -1600.517822  -2648.268311  -19341.11523     73.132912
    9159           0     -1269.705566  -2821.848389  -19341.11523    107.714081
    9160           0      -920.385132  -2954.297363  -19341.11523    136.668991
    9161           0      -557.650085  -3043.682861  -19341.11523    158.524246
    9162           0      -186.789169  -3088.704102  -19341.11328    168.772125
    9163           0     -2821.431641  -1270.631104  -18965.55468    124.291641
    9164           0     -2647.742432  -1601.387207  -18965.55468    204.426071
    9165           0     -2435.457764  -1908.802002  -18965.55468    191.356384
    9166           0     -2187.674072  -2188.392822  -18965.55468    126.110039
    9167           0     -1908.001465  -2436.084961  -18965.55468     64.242584
    9168           0     -1600.517822  -2648.268066  -18965.55468     68.833054
    9169           0     -1269.705566  -2821.848389  -18965.55468    103.676727
    9170           0      -920.385193  -2954.297119  -18965.55468    132.892838
    9171           0      -557.650085  -3043.682861  -18965.55468    155.173035
    9172           0      -186.789169  -3088.704102  -18965.55468    165.835342
    9173           0     -2821.431641  -1270.631104  -18590.00000    121.096359
    9174           0     -2647.742432  -1601.387085  -18590.00000    202.952713
    9175           0     -2435.458008  -1908.802002  -18590.00000    190.908905
    9176           0     -2187.674072  -2188.392822  -18590.00000    125.810982
    9177           0     -1908.001465  -2436.084961  -18590.00000     62.175488
    9178           0     -1600.517822  -2648.268066  -18590.00000     64.938057
    9179           0     -1269.705566  -2821.848145  -18590.00000     99.896111
    9180           0      -920.385315  -2954.297119  -18590.00000    129.204422
    9181           0      -557.650146  -3043.682861  -18590.00000    151.760681
    9182           0      -186.789169  -3088.704102  -18590.00000    162.744156
    9183           0     -2821.431641  -1270.631104  -18214.44531    118.126396
    9184           0     -2647.742432  -1601.387085  -18214.44531    201.553528
    9185           0     -2435.458008  -1908.801758  -18214.44531    190.382126
    9186           0     -2187.674316  -2188.392822  -18214.44531    125.467445
    9187           0     -1908.001709  -2436.084717  -18214.44531     60.417305
    9188           0     -1600.517944  -2648.268066  -18214.44531     61.449806
    9189           0     -1269.705688  -2821.848145  -18214.44531     96.371887
    9190           0      -920.385376  -2954.297119  -18214.44531    125.603081
    9191           0      -557.650208  -3043.682861  -18214.44531    148.284241
    9192           0      -186.789169  -3088.704102  -18214.44531    159.494354
    9193           0     -2821.431641  -1270.631104  -17838.88867    115.386520
    9194           0     -2647.742432  -1601.387085  -17838.88671    200.227554
    9195           0     -2435.458008  -1908.801758  -17838.88671    189.766937
    9196           0     -2187.674316  -2188.392578  -17838.88671    125.048859
    9197           0     -1908.001709  -2436.084473  -17838.88671     58.913345
    9198           0     -1600.518066  -2648.268066  -17838.88671     58.362194
    9199           0     -1269.705688  -2821.848145  -17838.88671     93.101051
    9200           0      -920.385376  -2954.297119  -17838.88671    122.086700
    9201           0      -557.650208  -3043.682861  -17838.88671    144.741638
    9202           0      -186.789169  -3088.704102  -17838.88867    156.082306
    9203           0     -2821.431641  -1270.631104  -17463.33007    112.882866
    9204           0     -2647.742432  -1601.387085  -17463.33007    198.973083
    9205           0     -2435.458008  -1908.801758  -17463.33203    189.054199
    9206           0     -2187.674316  -2188.392578  -17463.33203    124.528221
    9207           0     -1908.001709  -2436.084473  -17463.33203     57.606052
    9208           0     -1600.518066  -2648.268066  -17463.33203     55.666473
    9209           0     -1269.705811  -2821.848145  -17463.33398     90.078590
    9210           0      -920.385437  -2954.297119  -17463.33398    118.653831
    9211           0      -557.650269  -3043.682861  -17463.33593    141.130035
    9212           0      -186.789169  -3088.704102  -17463.33398    152.505066
    9213           0     -2821.431641  -1270.630981  -17087.77539    110.622955
    9214           0     -2647.742432  -1601.387085  -17087.77539    197.788010
    9215           0     -2435.458008  -1908.801758  -17087.77539    188.235352
    9216           0     -2187.674316  -2188.392578  -17087.77734    123.880943
    9217           0     -1908.001831  -2436.084473  -17087.77734     56.440056
    9218           0     -1600.518066  -2648.268066  -17087.77734     53.347904
    9219           0     -1269.705811  -2821.848145  -17087.77929     87.296577
    9220           0      -920.385498  -2954.297119  -17087.77929    115.299850
    9221           0      -557.650269  -3043.682861  -17087.78125    137.447968
    9222           0      -186.789169  -3088.704102  -17087.77929    148.760284
    9223           0     -2821.431641  -1270.630981  -16712.22070    108.615852
    9224           0     -2647.742432  -1601.387085  -16712.21875    196.669342
    9225           0     -2435.458008  -1908.801758  -16712.22070    187.301453
    9226           0     -2187.674316  -2188.392578  -16712.22265    123.084961
    9227           0     -1908.001953  -2436.084473  -16712.22265     55.361790
    9228           0     -1600.518066  -2648.268066  -16712.22265     51.385860
    9229           0     -1269.705811  -2821.848145  -16712.22265     84.745918
    9230           0      -920.385559  -2954.297119  -16712.22460    112.023308
    9231           0      -557.650330  -3043.682861  -16712.22656    133.692780
    9232           0      -186.789215  -3088.704102  -16712.22460    144.846207
    9233           0     -2821.431641  -1270.630981  -16336.66601    106.871872
    9234           0     -2647.742432  -1601.386963  -16336.66406    195.613678
    9235           0     -2435.458008  -1908.801758  -16336.66601    186.243851
    9236           0     -2187.674316  -2188.392578  -16336.66601    122.120285
    9237           0     -1908.001953  -2436.084473  -16336.66796     54.322037
    9238           0     -1600.518311  -2648.268066  -16336.66796     49.755413
    9239           0     -1269.706055  -2821.848145  -16336.66796     82.412674
    9240           0      -920.385681  -2954.297119  -16336.66992    108.815331
    9241           0      -557.650452  -3043.682861  -16336.66992    129.863434
    9242           0      -186.789276  -3088.704102  -16336.66796    140.761932
    9243           0     -2821.431641  -1270.630981  -15961.11230    105.402977
    9244           0     -2647.742676  -1601.386963  -15961.11328    194.616913
    9245           0     -2435.458008  -1908.801758  -15961.11132    185.053528
    9246           0     -2187.674316  -2188.392578  -15961.11132    120.968834
    9247           0     -1908.001953  -2436.084473  -15961.11035     53.275974
    9248           0     -1600.518311  -2648.267822  -15961.10937     48.425808
    9249           0     -1269.706055  -2821.848145  -15961.10937     80.285820
    9250           0      -920.385742  -2954.297119  -15961.10742    105.676109
    9251           0      -557.650513  -3043.682861  -15961.10742    125.957047
    9252           0      -186.789276  -3088.704102  -15961.10839    136.508179
    9253           0     -2821.431641  -1270.630981  -15585.55566    104.221878
    9254           0     -2647.742676  -1601.386963  -15585.55566    193.674164
    9255           0     -2435.458008  -1908.801758  -15585.55468    183.721375
    9256           0     -2187.674316  -2188.392578  -15585.55273    119.613907
    9257           0     -1908.001953  -2436.084473  -15585.55273     52.184048
    9258           0     -1600.518311  -2648.267822  -15585.55175     47.365536
    9259           0     -1269.706055  -2821.848145  -15585.55078     78.341690
    9260           0      -920.385742  -2954.297119  -15585.55078    102.593582
    9261           0      -557.650513  -3043.682861  -15585.54882    121.977425
    9262           0      -186.789276  -3088.704102  -15585.55175    132.085541
    9263           0     -2821.431641  -1270.630859  -15209.99902    103.341705
    9264           0     -2647.742676  -1601.386963  -15210.00000    192.780350
    9265           0     -2435.458008  -1908.801514  -15210.00000    182.236755
    9266           0     -2187.674316  -2188.392578  -15210.00000    118.041542
    9267           0     -1908.002197  -2436.084473  -15210.00000     51.010921
    9268           0     -1600.518555  -2648.267578  -15210.00000     46.536942
    9269           0     -1269.706055  -2821.848145  -15210.00000     76.573631
    9270           0      -920.385742  -2954.297119  -15210.00000     99.571724
    9271           0      -557.650574  -3043.682861  -15210.00000    117.916794
    9272           0      -186.789276  -3088.704102  -15209.99902    127.495842
    9273           0     -2821.431641  -1270.630859  -14834.44433    102.776489
    9274           0     -2647.742676  -1601.386963  -14834.44433    191.928528
    9275           0     -2435.458008  -1908.801514  -14834.44433    180.591110
    9276           0     -2187.674805  -2188.392334  -14834.44433    116.235229
    9277           0     -1908.002197  -2436.084473  -14834.44335     49.728951
    9278           0     -1600.518555  -2648.267578  -14834.44335     45.911945
    9279           0     -1269.706177  -2821.848145  -14834.44335     74.941620
    9280           0      -920.385864  -2954.297119  -14834.44335     96.585548
    9281           0      -557.650635  -3043.682861  -14834.44335    113.783943
    9282           0      -186.789276  -3088.704102  -14834.44335    122.743446
    9283           0     -2821.431641  -1270.630859  -14458.88769    102.539253
    9284           0     -2647.742676  -1601.386963  -14458.88769    191.111511
    9285           0     -2435.458008  -1908.801514  -14458.88769    178.773865
    9286           0     -2187.674805  -2188.392334  -14458.88769    114.182312
    9287           0     -1908.002197  -2436.084473  -14458.88671     48.314972
    9288           0     -1600.518555  -2648.267578  -14458.88671     45.449596
    9289           0     -1269.706299  -2821.848145  -14458.88671     73.440849
    9290           0      -920.385925  -2954.297119  -14458.88671     93.632965
    9291           0      -557.650635  -3043.682861  -14458.88671    109.575485
    9292           0      -186.789276  -3088.704102  -14458.88769    117.831810
    9293           0     -2821.431641  -1270.630859  -14083.33593    102.642967
    9294           0     -2647.742676  -1601.386963  -14083.33789    190.322021
    9295           0     -2435.458008  -1908.801514  -14083.33789    176.772980
    9296           0     -2187.674805  -2188.392334  -14083.33593    111.873688
    9297           0     -1908.002197  -2436.084473  -14083.33496     46.747066
    9298           0     -1600.518677  -2648.267578  -14083.33300     45.116467
    9299           0     -1269.706299  -2821.847900  -14083.33300     72.054329
    9300           0      -920.385925  -2954.297119  -14083.33105     90.721222
    9301           0      -557.650635  -3043.682861  -14083.33105    105.288330
    9302           0      -186.789276  -3088.704102  -14083.33105    112.765152
    9303           0     -2821.431641  -1270.630859  -13707.78027    103.098274
    9304           0     -2647.742676  -1601.386841  -13707.78125    189.550049
    9305           0     -2435.458008  -1908.801514  -13707.78027    174.578796
    9306           0     -2187.674805  -2188.392090  -13707.77929    109.295319
    9307           0     -1908.002197  -2436.084473  -13707.77832     45.013901
    9308           0     -1600.518677  -2648.267578  -13707.77734     44.888523
    9309           0     -1269.706299  -2821.847900  -13707.77636     70.743523
    9310           0      -920.385986  -2954.297119  -13707.77539     87.822281
    9311           0      -557.650696  -3043.682861  -13707.77441    100.932426
    9312           0      -186.789276  -3088.704102  -13707.77539    107.551453
    9313           0     -2821.431641  -1270.630859  -13332.22460    103.914032
    9314           0     -2647.742676  -1601.386841  -13332.22656    188.785599
    9315           0     -2435.458008  -1908.801514  -13332.22656    172.179321
    9316           0     -2187.674805  -2188.392090  -13332.22656    106.439468
    9317           0     -1908.002319  -2436.084229  -13332.22656     43.105686
    9318           0     -1600.518799  -2648.267578  -13332.22656     44.739475
    9319           0     -1269.706421  -2821.847900  -13332.22656     69.496223
    9320           0      -920.386047  -2954.296875  -13332.22656     84.939865
    9321           0      -557.650757  -3043.682861  -13332.22656     96.505463
    9322           0      -186.789276  -3088.704102  -13332.22460    102.196732
    9323           0     -2821.431641  -1270.630859  -12956.67382    105.099258
    9324           0     -2647.742676  -1601.386841  -12956.67968    188.017563
    9325           0     -2435.458252  -1908.801514  -12956.67968    169.562836
    9326           0     -2187.674805  -2188.392090  -12956.67968    103.297203
    9327           0     -1908.002441  -2436.083984  -12956.67968     41.020493
    9328           0     -1600.518921  -2648.267578  -12956.67968     44.649094
    9329           0     -1269.706543  -2821.847900  -12956.67968     68.287956
    9330           0      -920.386108  -2954.296875  -12956.67968     82.058914
    9331           0      -557.650757  -3043.682861  -12956.67968     92.015518
    9332           0      -186.789276  -3088.704102  -12956.67382     96.712059
    9333           0     -2821.431641  -1270.630859  -12581.11718    106.650116
    9334           0     -2647.742676  -1601.386719  -12581.12304    187.230545
    9335           0     -2435.458252  -1908.801270  -12581.12304    166.718674
    9336           0     -2187.674805  -2188.392090  -12581.12304     99.862640
    9337           0     -1908.002441  -2436.083984  -12581.12402     38.759201
    9338           0     -1600.518921  -2648.267578  -12581.12500     44.601898
    9339           0     -1269.706543  -2821.847656  -12581.12500     67.100250
    9340           0      -920.386108  -2954.296875  -12581.12500     79.175911
    9341           0      -557.650818  -3043.682861  -12581.12500     87.464310
    9342           0      -186.789276  -3088.704102  -12581.11914     91.107040
    9343           0     -2821.431641  -1270.630859  -12205.56054    108.575340
    9344           0     -2647.742676  -1601.386719  -12205.56445    186.414795
    9345           0     -2435.458252  -1908.801270  -12205.56445    163.632095
    9346           0     -2187.674805  -2188.392090  -12205.56445     96.129936
    9347           0     -1908.002563  -2436.083984  -12205.56640     36.337486
    9348           0     -1600.519043  -2648.267578  -12205.56640     44.586151
    9349           0     -1269.706543  -2821.847656  -12205.56640     65.914436
    9350           0      -920.386230  -2954.296875  -12205.56640     76.281631
    9351           0      -557.650879  -3043.682861  -12205.56640     82.859657
    9352           0      -186.789337  -3088.704102  -12205.56054     85.394371
    9353           0     -2821.431641  -1270.630859  -11830.00000    110.861641
    9354           0     -2647.742676  -1601.386719  -11830.00097    185.551086
    9355           0     -2435.458496  -1908.801270  -11830.00097    160.295166
    9356           0     -2187.674805  -2188.392090  -11830.00097     92.101784
    9357           0     -1908.002563  -2436.083984  -11830.00097     33.772694
    9358           0     -1600.519043  -2648.267578  -11830.00097     44.594852
    9359           0     -1269.706543  -2821.847656  -11830.00097     64.715378
    9360           0      -920.386230  -2954.296875  -11830.00097     73.372757
    9361           0      -557.650940  -3043.682861  -11830.00097     78.209671
    9362           0      -186.789398  -3088.704102  -11830.00000     79.587601
    9363           0     -2821.431641  -1270.630859  -11454.43945    113.504242
    9364           0     -2647.742676  -1601.386719  -11454.43554    184.621857
    9365           0     -2435.458496  -1908.801270  -11454.43554    156.693832
    9366           0     -2187.675049  -2188.392090  -11454.43554     87.772064
    9367           0     -1908.002686  -2436.083984  -11454.43554     31.110640
    9368           0     -1600.519043  -2648.267578  -11454.43457     44.625465
    9369           0     -1269.706543  -2821.847656  -11454.43457     63.488789
    9370           0      -920.386230  -2954.296875  -11454.43457     70.444458
    9371           0      -557.651001  -3043.682861  -11454.43457     73.523689
    9372           0      -186.789398  -3088.704102  -11454.44043     73.703133
    9373           0     -2821.431641  -1270.630859  -11078.88867    116.486519
    9374           0     -2647.742676  -1601.386719  -11078.88867    183.607452
    9375           0     -2435.458496  -1908.801147  -11078.88867    152.825729
    9376           0     -2187.675049  -2188.392090  -11078.88867     83.168289
    9377           0     -1908.002686  -2436.083984  -11078.88867     28.403061
    9378           0     -1600.519165  -2648.267334  -11078.88671     44.674717
    9379           0     -1269.706665  -2821.847656  -11078.88671     62.229259
    9380           0      -920.386353  -2954.296875  -11078.88671     67.493988
    9381           0      -557.651062  -3043.682861  -11078.88671     68.813225
    9382           0      -186.789398  -3088.704102  -11078.88769     67.758934
    9383           0     -2821.431641  -1270.630859  -10703.33203    119.787796
    9384           0     -2647.742676  -1601.386719  -10703.33007    182.498291
    9385           0     -2435.458496  -1908.801147  -10703.33007    148.666107
    9386           0     -2187.675049  -2188.392090  -10703.33007     78.257286
    9387           0     -1908.002930  -2436.083984  -10703.33007     25.764669
    9388           0     -1600.519287  -2648.267090  -10703.32910     44.757652
    9389           0     -1269.706787  -2821.847656  -10703.32910     60.922497
    9390           0      -920.386475  -2954.296875  -10703.32910     64.524727
    9391           0      -557.651062  -3043.682861  -10703.32910     64.094833
    9392           0      -186.789398  -3088.704102  -10703.33105     61.775078
    9393           0     -2821.431641  -1270.630859  -10327.77539    123.384956
    9394           0     -2647.742676  -1601.386597  -10327.77246    181.262054
    9395           0     -2435.458496  -1908.801025  -10327.77246    144.208603
    9396           0     -2187.675293  -2188.391846  -10327.77246     73.115921
    9397           0     -1908.002930  -2436.083984  -10327.77246     23.332067
    9398           0     -1600.519287  -2648.267090  -10327.77246     44.880127
    9399           0     -1269.706787  -2821.847656  -10327.77246     59.568493
    9400           0      -920.386475  -2954.296875  -10327.77246     61.537647
    9401           0      -557.651123  -3043.682861  -10327.77246     59.385647
    9402           0      -186.789398  -3088.704102  -10327.77539     55.777309
    9403           0     -2821.431641  -1270.630859  -9952.218750    127.247513
    9404           0     -2647.742676  -1601.386597  -9952.215820    179.859940
    9405           0     -2435.458496  -1908.801025  -9952.215820    139.483826
    9406           0     -2187.675293  -2188.391846  -9952.215820     67.779610
    9407           0     -1908.002930  -2436.083984  -9952.215820     21.344307
    9408           0     -1600.519287  -2648.267090  -9952.215820     45.044735
    9409           0     -1269.706787  -2821.847656  -9952.215820     58.169884
    9410           0      -920.386475  -2954.296875  -9952.215820     58.542183
    9411           0      -557.651184  -3043.682861  -9952.215820     54.712292
    9412           0      -186.789398  -3088.704102  -9952.218750     49.796074
    9413           0     -2821.431641  -1270.630859  -9576.661133    131.337723
    9414           0     -2647.742676  -1601.386475  -9576.657227    178.279617
    9415           0     -2435.458496  -1908.801025  -9576.657227    134.468948
    9416           0     -2187.675293  -2188.391846  -9576.657227     62.286564
    9417           0     -1908.002930  -2436.083740  -9576.658203     20.105162
    9418           0     -1600.519409  -2648.267090  -9576.659180     45.283344
    9419           0     -1269.706909  -2821.847656  -9576.659180     56.728516
    9420           0      -920.386475  -2954.296875  -9576.659180     55.547039
    9421           0      -557.651184  -3043.682861  -9576.659180     50.103931
    9422           0      -186.789398  -3088.704102  -9576.662109     43.869572
    9423           0     -2821.431641  -1270.630859  -9201.110352    135.609100
    9424           0     -2647.742676  -1601.386475  -9201.109375    176.492172
    9425           0     -2435.458496  -1908.801025  -9201.109375    129.183182
    9426           0     -2187.675293  -2188.391602  -9201.109375     56.754250
    9427           0     -1908.002930  -2436.083740  -9201.111328     19.937620
    9428           0     -1600.519409  -2648.267090  -9201.112305     45.600735
    9429           0     -1269.706909  -2821.847656  -9201.112305     55.243835
    9430           0      -920.386597  -2954.296875  -9201.112305     52.572975
    9431           0      -557.651245  -3043.682861  -9201.112305     45.604828
    9432           0      -186.789398  -3088.704102  -9201.112305     38.053329
    9433           0     -2821.431641  -1270.630859  -8825.558594    140.009613
    9434           0     -2647.742676  -1601.386475  -8825.562500    174.466187
    9435           0     -2435.458496  -1908.801025  -8825.562500    123.653008
    9436           0     -2187.675293  -2188.391602  -8825.562500     51.328979
    9437           0     -1908.003052  -2436.083740  -8825.563477     21.038399
    9438           0     -1600.519531  -2648.267090  -8825.563477     46.041039
    9439           0     -1269.707031  -2821.847656  -8825.563477     53.745800
    9440           0      -920.386719  -2954.296875  -8825.563477     49.632324
    9441           0      -557.651306  -3043.682861  -8825.563477     41.270168
    9442           0      -186.789398  -3088.704102  -8825.559570     32.428909
    9443           0     -2821.431641  -1270.630859  -8450.000977    144.477203
    9444           0     -2647.742676  -1601.386475  -8450.000977    172.171921
    9445           0     -2435.458496  -1908.801025  -8450.000977    117.920242
    9446           0     -2187.675293  -2188.391602  -8450.000977     46.258732
    9447           0     -1908.003174  -2436.083496  -8450.000977     23.397356
    9448           0     -1600.519653  -2648.267090  -8450.000977     46.595322
    9449           0     -1269.707153  -2821.847656  -8450.000977     52.254517
    9450           0      -920.386841  -2954.296875  -8450.000977     46.755909
    9451           0      -557.651306  -3043.682861  -8450.000977     37.176891
    9452           0      -186.789398  -3088.704102  -8450.000977     27.128826
    9453           0     -2821.431641  -1270.630859  -8074.442383    148.941513
    9454           0     -2647.742676  -1601.386475  -8074.439453    169.582352
    9455           0     -2435.458496  -1908.800903  -8074.439453    112.047195
    9456           0     -2187.675293  -2188.391602  -8074.439453     41.921692
    9457           0     -1908.003174  -2436.083496  -8074.438477     26.821003
    9458           0     -1600.519775  -2648.267090  -8074.438477     47.291725
    9459           0     -1269.707153  -2821.847656  -8074.438477     50.755726
    9460           0      -920.386841  -2954.296875  -8074.438477     43.983070
    9461           0      -557.651306  -3043.682861  -8074.438477     33.432110
    9462           0      -186.789398  -3088.704102  -8074.442383     22.388191
    9463           0     -2821.431641  -1270.630737  -7698.885254    153.317902
    9464           0     -2647.742676  -1601.386475  -7698.881836    166.669189
    9465           0     -2435.458496  -1908.800903  -7698.883789    106.137054
    9466           0     -2187.675293  -2188.391602  -7698.883789     38.832958
    9467           0     -1908.003174  -2436.083496  -7698.885742     31.075123
    9468           0     -1600.519775  -2648.267090  -7698.886719     48.169350
    9469           0     -1269.707275  -2821.847656  -7698.887695     49.296043
    9470           0      -920.386841  -2954.296875  -7698.888672     41.339878
    9471           0      -557.651367  -3043.682861  -7698.890137     30.181082
    9472           0      -186.789398  -3088.704102  -7698.890137     18.623569
    9473           0     -2821.431641  -1270.630737  -7323.327637    157.513458
    9474           0     -2647.742920  -1601.386475  -7323.323242    163.412933
    9475           0     -2435.458740  -1908.800903  -7323.324219    100.332756
    9476           0     -2187.675537  -2188.391602  -7323.325195     37.602402
    9477           0     -1908.003174  -2436.083496  -7323.327148     35.967106
    9478           0     -1600.519775  -2648.267090  -7323.329102     49.231468
    9479           0     -1269.707275  -2821.847656  -7323.330078     47.880894
    9480           0      -920.386841  -2954.296875  -7323.331055     38.876732
    9481           0      -557.651428  -3043.682861  -7323.332031     27.608126
    9482           0      -186.789459  -3088.704102  -7323.333008     16.486729
    9483           0     -2821.431641  -1270.630737  -6947.776367    161.418091
    9484           0     -2647.742920  -1601.386475  -6947.774902    159.802689
    9485           0     -2435.458740  -1908.800903  -6947.774902     94.840157
    9486           0     -2187.675537  -2188.391602  -6947.774902     38.701500
    9487           0     -1908.003174  -2436.083496  -6947.774902     41.350739
    9488           0     -1600.519897  -2648.267090  -6947.774902     50.494858
    9489           0     -1269.707275  -2821.847656  -6947.774902     46.536945
    9490           0      -920.386963  -2954.296875  -6947.774902     36.638985
    9491           0      -557.651489  -3043.682861  -6947.774902     25.914951
    9492           0      -186.789505  -3088.704102  -6947.776367     16.577507
    9493           0     -2821.431641  -1270.630737  -6572.225586    164.910110
    9494           0     -2647.742920  -1601.386475  -6572.228027    155.841873
    9495           0     -2435.458740  -1908.800781  -6572.228027     89.942146
    9496           0     -2187.675537  -2188.391602  -6572.228027     42.219944
    9497           0     -1908.003418  -2436.083496  -6572.228027     47.123459
    9498           0     -1600.520020  -2648.266846  -6572.228027     51.960278
    9499           0     -1269.707520  -2821.847168  -6572.228027     45.275394
    9500           0      -920.387085  -2954.296631  -6572.228027     34.682766
    9501           0      -557.651550  -3043.682861  -6572.228027     25.273680
    9502           0      -186.789505  -3088.704102  -6572.225098     18.819128
    9503           0     -2821.431641  -1270.630737  -6196.666992    167.851807
    9504           0     -2647.743164  -1601.386353  -6196.666992    151.557724
    9505           0     -2435.458740  -1908.800781  -6196.666992     86.006035
    9506           0     -2187.675537  -2188.391602  -6196.666992     47.858059
    9507           0     -1908.003418  -2436.083496  -6196.667480     53.209301
    9508           0     -1600.520020  -2648.266602  -6196.667969     53.623974
    9509           0     -1269.707520  -2821.847168  -6196.667969     44.110989
    9510           0      -920.387085  -2954.296631  -6196.667969     33.060013
    9511           0      -557.651611  -3043.682861  -6196.667969     25.748146
    9512           0      -186.789505  -3088.704102  -6196.667480     22.541319
    9513           0     -2821.431885  -1270.630615  -5821.108398    170.091324
    9514           0     -2647.743164  -1601.386353  -5821.105469    147.010574
    9515           0     -2435.458740  -1908.800781  -5821.105469     83.474815
    9516           0     -2187.675537  -2188.391602  -5821.105469     55.168015
    9517           0     -1908.003540  -2436.083496  -5821.106445     59.545208
    9518           0     -1600.520020  -2648.266602  -5821.106934     55.471706
    9519           0     -1269.707520  -2821.847168  -5821.106934     43.048267
    9520           0      -920.387085  -2954.296631  -5821.106934     31.820370
    9521           0      -557.651611  -3043.682861  -5821.106934     27.263138
    9522           0      -186.789505  -3088.704102  -5821.109375     27.107100
    9523           0     -2821.431885  -1270.630615  -5445.557129    171.465500
    9524           0     -2647.743164  -1601.386230  -5445.558594    142.311569
    9525           0     -2435.458740  -1908.800537  -5445.558594     82.815025
    9526           0     -2187.675781  -2188.391113  -5445.558594     63.729202
    9527           0     -1908.003540  -2436.083252  -5445.559570     66.082817
    9528           0     -1600.520264  -2648.266602  -5445.560547     57.479347
    9529           0     -1269.707520  -2821.847168  -5445.560547     42.089909
    9530           0      -920.387207  -2954.296631  -5445.560547     31.002718
    9531           0      -557.651672  -3043.682861  -5445.560547     29.636597
    9532           0      -186.789505  -3088.704102  -5445.558105     32.132149
    9533           0     -2821.431885  -1270.630615  -5070.000488    171.799210
    9534           0     -2647.743164  -1601.386230  -5070.000977    137.633362
    9535           0     -2435.458740  -1908.800537  -5070.000977     84.425774
    9536           0     -2187.675781  -2188.391113  -5070.000977     73.236633
    9537           0     -1908.003540  -2436.083252  -5070.000977     72.768204
    9538           0     -1600.520264  -2648.266602  -5070.000977     59.617958
    9539           0     -1269.707520  -2821.847168  -5070.000977     41.230789
    9540           0      -920.387268  -2954.296631  -5070.000977     30.627272
    9541           0      -557.651733  -3043.682861  -5070.000977     32.662617
    9542           0      -186.789505  -3088.704102  -5070.000488     37.407379
    9543           0     -2821.431885  -1270.630615  -4694.443359    170.921234
    9544           0     -2647.743164  -1601.386230  -4694.442383    133.249115
    9545           0     -2435.458984  -1908.800537  -4694.442383     88.539391
    9546           0     -2187.675781  -2188.391113  -4694.442383     83.443695
    9547           0     -1908.003662  -2436.083252  -4694.441406     79.560913
    9548           0     -1600.520264  -2648.266602  -4694.440430     61.849640
    9549           0     -1269.707642  -2821.847168  -4694.440430     40.464920
    9550           0      -920.387329  -2954.296631  -4694.440430     30.696562
    9551           0      -557.651733  -3043.682861  -4694.440430     36.155239
    9552           0      -186.789505  -3088.704102  -4694.442383     42.822372
    9553           0     -2821.431885  -1270.630615  -4318.886230    168.657883
    9554           0     -2647.743164  -1601.386230  -4318.883789    129.519470
    9555           0     -2435.458984  -1908.800537  -4318.885254     95.166000
    9556           0     -2187.675781  -2188.391113  -4318.886719     94.203766
    9557           0     -1908.003662  -2436.083252  -4318.887695     86.403328
    9558           0     -1600.520264  -2648.266602  -4318.888672     64.141388
    9559           0     -1269.707764  -2821.847168  -4318.890137     39.781757
    9560           0      -920.387390  -2954.296631  -4318.891602     31.187014
    9561           0      -557.651733  -3043.682861  -4318.893066     39.977703
    9562           0      -186.789505  -3088.704102  -4318.891602     48.311249
    9563           0     -2821.431885  -1270.630615  -3943.327881    164.884369
    9564           0     -2647.743164  -1601.386230  -3943.322754    126.965973
    9565           0     -2435.458984  -1908.800537  -3943.324219    104.136833
    9566           0     -2187.675781  -2188.391113  -3943.326172    105.342087
    9567           0     -1908.003662  -2436.083008  -3943.327637     93.254288
    9568           0     -1600.520264  -2648.266602  -3943.329102     66.455063
    9569           0     -1269.707764  -2821.847168  -3943.330566     39.174725
    9570           0      -920.387390  -2954.296631  -3943.332031     32.066162
    9571           0      -557.651855  -3043.682861  -3943.333496     44.025753
    9572           0      -186.789505  -3088.704102  -3943.334473     53.838543
    9573           0     -2821.431885  -1270.630615  -3567.776123    159.491089
    9574           0     -2647.743164  -1601.386230  -3567.774170    126.119858
    9575           0     -2435.458984  -1908.800537  -3567.774170    115.138939
    9576           0     -2187.675781  -2188.391113  -3567.774170    116.796921
    9577           0     -1908.003906  -2436.083008  -3567.774170    100.060951
    9578           0     -1600.520386  -2648.266602  -3567.774170     68.774788
    9579           0     -1269.707764  -2821.847168  -3567.774170     38.634571
    9580           0      -920.387390  -2954.296631  -3567.774170     33.281067
    9581           0      -557.651855  -3043.682861  -3567.774170     48.232506
    9582           0      -186.789505  -3088.704102  -3567.776123     59.378048
    9583           0     -2821.431885  -1270.630615  -3192.224609    152.545990
    9584           0     -2647.743164  -1601.386230  -3192.227539    127.717560
    9585           0     -2435.458984  -1908.800537  -3192.227539    127.899361
    9586           0     -2187.675781  -2188.391113  -3192.227539    128.381348
    9587           0     -1908.003906  -2436.083008  -3192.227539    106.778427
    9588           0     -1600.520508  -2648.266602  -3192.227539     71.071106
    9589           0     -1269.707764  -2821.847168  -3192.227539     38.157181
    9590           0      -920.387451  -2954.296631  -3192.227539     34.789799
    9591           0      -557.651855  -3043.682617  -3192.227539     52.544456
    9592           0      -186.789505  -3088.704102  -3192.224365     64.921669
    9593           0     -2821.431885  -1270.630615  -2816.672607    144.132996
    9594           0     -2647.743164  -1601.386230  -2816.678711    132.025391
    9595           0     -2435.458984  -1908.800415  -2816.677734    141.937012
    9596           0     -2187.676025  -2188.391113  -2816.676270    140.082855
    9597           0     -1908.003906  -2436.083008  -2816.674072    113.394875
    9598           0     -1600.520508  -2648.266602  -2816.672607     73.375221
    9599           0     -1269.707886  -2821.847168  -2816.671143     37.737362
    9600           0      -920.387573  -2954.296631  -2816.669678     36.527409
    9601           0      -557.651978  -3043.682617  -2816.667969     56.920006
    9602           0      -186.789505  -3088.704102  -2816.666504     70.441696
    9603           0     -2821.431885  -1270.630615  -2441.113525    134.896347
    9604           0     -2647.743164  -1601.386230  -2441.114990    139.884247
    9605           0     -2435.458984  -1908.800415  -2441.114014    157.300323
    9606           0     -2187.676270  -2188.391113  -2441.112549    151.744858
    9607           0     -1908.004028  -2436.083008  -2441.110840    119.884933
    9608           0     -1600.520752  -2648.266602  -2441.109863     75.640678
    9609           0     -1269.708008  -2821.847168  -2441.108398     37.352573
    9610           0      -920.387634  -2954.296631  -2441.106934     38.486046
    9611           0      -557.651978  -3043.682617  -2441.105469     61.371632
    9612           0      -186.789551  -3088.704102  -2441.107910     75.993385
    9613           0     -2821.431885  -1270.630615  -2065.554443    125.252861
    9614           0     -2647.743164  -1601.385986  -2065.553955    150.094284
    9615           0     -2435.458984  -1908.800415  -2065.553955    172.756561
    9616           0     -2187.676270  -2188.391113  -2065.553955    163.140091
    9617           0     -1908.004028  -2436.083008  -2065.554932    126.238144
    9618           0     -1600.520752  -2648.266602  -2065.555908     77.952614
    9619           0     -1269.708008  -2821.847168  -2065.555908     37.022465
    9620           0      -920.387634  -2954.296631  -2065.555908     40.518097
    9621           0      -557.652039  -3043.682617  -2065.555908     65.736755
    9622           0      -186.789612  -3088.704102  -2065.555176     81.382675
    9623           0     -2821.431885  -1270.630615  -1689.999390    117.324409
    9624           0     -2647.743164  -1601.385986  -1690.000366    164.815918
    9625           0     -2435.458984  -1908.800293  -1690.000366    190.177032
    9626           0     -2187.676270  -2188.390869  -1690.000366    175.038315
    9627           0     -1908.004150  -2436.082764  -1690.000488    132.818314
    9628           0     -1600.520874  -2648.266357  -1690.000488     80.242744
    9629           0     -1269.708008  -2821.847168  -1690.000488     36.648205
    9630           0      -920.387695  -2954.296631  -1690.000488     42.881367
    9631           0      -557.652100  -3043.682617  -1690.000488     70.458992
    9632           0      -186.789612  -3088.704102  -1689.999390     87.158981
    9633           0     -2821.431885  -1270.630615  -1314.445313    111.055519
    9634           0     -2647.743164  -1601.385986  -1314.446899    178.186127
    9635           0     -2435.458984  -1908.800293  -1314.446899    204.225403
    9636           0     -2187.676270  -2188.390869  -1314.446899    184.887482
    9637           0     -1908.004150  -2436.082764  -1314.446411    138.484894
    9638           0     -1600.520874  -2648.266113  -1314.445435     82.322578
    9639           0     -1269.708130  -2821.847168  -1314.444824     36.394642
    9640           0      -920.387695  -2954.296631  -1314.444824     44.819027
    9641           0      -557.652161  -3043.682617  -1314.444824     74.309212
    9642           0      -186.789612  -3088.704102  -1314.444336     91.851753
    9643           0     -2821.431885  -1270.630615   -938.887390    110.749252
    9644           0     -2647.743164  -1601.385986   -938.886841    199.293259
    9645           0     -2435.458984  -1908.800293   -938.887878    224.993958
    9646           0     -2187.676270  -2188.390625   -938.889404    199.176468
    9647           0     -1908.004150  -2436.082764   -938.890869    146.505890
    9648           0     -1600.520874  -2648.266113   -938.891846     84.901352
    9649           0     -1269.708252  -2821.847168   -938.893372     36.020630
    9650           0      -920.387756  -2954.296387   -938.894897     47.922958
    9651           0      -557.652161  -3043.682617   -938.896362     80.070763
    9652           0      -186.789612  -3088.704102   -938.892944     98.846672
    9653           0     -2821.431885  -1270.630615   -563.327271    112.242279
    9654           0     -2647.743164  -1601.385986   -563.323242    211.846756
    9655           0     -2435.458984  -1908.800293   -563.324280    235.609467
    9656           0     -2187.676270  -2188.390625   -563.325745    207.263245
    9657           0     -1908.004150  -2436.082764   -563.327271    150.798065
    9658           0     -1600.520874  -2648.266113   -563.328796     86.805290
    9659           0     -1269.708252  -2821.846924   -563.330811     36.142326
    9660           0      -920.387878  -2954.296387   -563.332336     49.540535
    9661           0      -557.652222  -3043.682617   -563.333801     82.972816
    9662           0      -186.789612  -3088.704102   -563.333313    102.347176
    9663           0     -2821.431885  -1270.630615   -187.775253    109.425987
    9664           0     -2647.743164  -1601.385864   -187.773239    220.231781
    9665           0     -2435.459229  -1908.800293   -187.773239    245.359375
    9666           0     -2187.676270  -2188.390625   -187.773239    211.739624
    9667           0     -1908.004395  -2436.082764   -187.773239    151.176132
    9668           0     -1600.520996  -2648.266113   -187.773239     84.939758
    9669           0     -1269.708374  -2821.846924   -187.773239     33.896637
    9670           0      -920.387939  -2954.296387   -187.773239     50.782692
    9671           0      -557.652283  -3043.682617   -187.773239     85.266426
    9672           0      -186.789612  -3088.704102   -187.775253    104.874992
    9673           0      2717.133057  -1100.000122  -69807.68750     26.869534
    9674           0      2354.848633  -1100.000000  -69807.68750     45.820320
    9675           0      1992.564331  -1100.000000  -69807.68750     67.197533
    9676           0      1630.279785  -1100.000000  -69807.68750     84.639938
    9677           0      1267.995483  -1100.000000  -69807.68750     97.790596
    9678           0       905.711060  -1100.000000  -69807.68750    106.998055
    9679           0       543.426575  -1100.000000  -69807.68750    112.801659
    9680           0       181.142136  -1100.000000  -69807.68750    115.598618
    9681           0      -181.142288  -1100.000000  -69807.68750    115.616394
    9682           0      -543.426758  -1100.000000  -69807.68750    112.854309
    9683           0      -905.711182  -1100.000000  -69807.68750    107.083405
    9684           0     -1267.995605  -1100.000000  -69807.68750     97.904282
    9685           0     -1630.279785  -1100.000000  -69807.68750     84.774109
    9686           0     -1992.564209  -1100.000000  -69807.68750     67.339493
    9687           0     -2354.849121  -1100.000000  -69807.68750     45.946918
    9688           0     -2717.133301  -1099.999878  -69807.68750     26.920372
    9689           0      2717.133057  -1100.000122  -69423.07812     49.239513
    9690           0      2354.848633  -1100.000000  -69423.07812     46.214588
    9691           0      1992.564331  -1100.000000  -69423.07812     41.970932
    9692           0      1630.279785  -1100.000000  -69423.07812     40.260006
    9693           0      1267.995483  -1100.000000  -69423.07812     41.012867
    9694           0       905.711060  -1100.000000  -69423.07812     42.788689
    9695           0       543.426575  -1100.000000  -69423.07812     44.480495
    9696           0       181.142136  -1100.000000  -69423.07812     45.459164
    9697           0      -181.142288  -1100.000000  -69423.07812     45.471390
    9698           0      -543.426758  -1100.000000  -69423.07812     44.515350
    9699           0      -905.711182  -1100.000000  -69423.07812     42.840340
    9700           0     -1267.995605  -1100.000000  -69423.07812     41.069794
    9701           0     -1630.279785  -1100.000000  -69423.07812     40.306583
    9702           0     -1992.564209  -1100.000000  -69423.07812     41.993057
    9703           0     -2354.849121  -1100.000000  -69423.07812     46.220997
    9704           0     -2717.133301  -1099.999878  -69423.07812     49.273739
    9705           0      2717.133057  -1100.000122  -69038.46093     50.338150
    9706           0      2354.848633  -1100.000000  -69038.46093     49.337784
    9707           0      1992.564331  -1100.000000  -69038.46093     43.961411
    9708           0      1630.279785  -1100.000000  -69038.46093     35.945313
    9709           0      1267.995483  -1100.000000  -69038.46093     27.794367
    9710           0       905.711060  -1100.000000  -69038.46093     20.510767
    9711           0       543.426575  -1100.000000  -69038.46093     14.600163
    9712           0       181.142136  -1100.000000  -69038.46093     10.923436
    9713           0      -181.142288  -1100.000000  -69038.46093     10.869127
    9714           0      -543.426758  -1100.000000  -69038.46093     14.475910
    9715           0      -905.711182  -1100.000000  -69038.46093     20.360035
    9716           0     -1267.995605  -1100.000000  -69038.46093     27.640282
    9717           0     -1630.279785  -1100.000000  -69038.46093     35.804653
    9718           0     -1992.564209  -1100.000000  -69038.46093     43.854141
    9719           0     -2354.849121  -1100.000000  -69038.46093     49.291073
    9720           0     -2717.133301  -1099.999878  -69038.46093     50.379292
    9721           0      2717.133057  -1100.000122  -68653.84375     42.483593
    9722           0      2354.848633  -1100.000000  -68653.84375     45.403397
    9723           0      1992.564331  -1100.000000  -68653.84375     46.807110
    9724           0      1630.279785  -1100.000000  -68653.84375     46.705345
    9725           0      1267.995483  -1100.000000  -68653.84375     45.907394
    9726           0       905.711060  -1100.000000  -68653.84375     45.300556
    9727           0       543.426575  -1100.000000  -68653.84375     45.024021
    9728           0       181.142136  -1100.000000  -68653.84375     44.928886
    9729           0      -181.142288  -1100.000000  -68653.84375     44.901566
    9730           0      -543.426758  -1100.000000  -68653.84375     44.941536
    9731           0      -905.711182  -1100.000000  -68653.84375     45.164520
    9732           0     -1267.995605  -1100.000000  -68653.84375     45.728226
    9733           0     -1630.279785  -1100.000000  -68653.84375     46.509304
    9734           0     -1992.564209  -1100.000000  -68653.84375     46.636551
    9735           0     -2354.849121  -1100.000000  -68653.84375     45.306774
    9736           0     -2717.133301  -1099.999878  -68653.84375     42.528160
    9737           0      2717.133057  -1100.000122  -68269.23437     26.643354
    9738           0      2354.848633  -1100.000000  -68269.23437     37.605553
    9739           0      1992.564331  -1100.000000  -68269.23437     47.526512
    9740           0      1630.279785  -1100.000000  -68269.23437     54.644867
    9741           0      1267.995483  -1100.000000  -68269.23437     59.917870
    9742           0       905.711060  -1100.000000  -68269.23437     63.717251
    9743           0       543.426575  -1100.000000  -68269.23437     66.235893
    9744           0       181.142136  -1100.000000  -68269.23437     67.498665
    9745           0      -181.142288  -1100.000000  -68269.23437     67.479111
    9746           0      -543.426758  -1100.000000  -68269.23437     66.174332
    9747           0      -905.711182  -1100.000000  -68269.23437     63.607361
    9748           0     -1267.995605  -1100.000000  -68269.23437     59.757046
    9749           0     -1630.279785  -1100.000000  -68269.23437     54.443851
    9750           0     -1992.564209  -1100.000000  -68269.23437     47.316067
    9751           0     -2354.849121  -1100.000000  -68269.23437     37.446476
    9752           0     -2717.133301  -1099.999878  -68269.23437     26.641300
    9753           0      2717.133057  -1100.000122  -67884.61718     10.908008
    9754           0      2354.848633  -1100.000000  -67884.61718     32.311733
    9755           0      1992.564331  -1100.000000  -67884.61718     47.490562
    9756           0      1630.279785  -1100.000000  -67884.61718     58.519222
    9757           0      1267.995483  -1100.000000  -67884.61718     66.511787
    9758           0       905.711060  -1100.000000  -67884.61718     72.241325
    9759           0       543.426575  -1100.000000  -67884.61718     75.978981
    9760           0       181.142136  -1100.000000  -67884.61718     77.827538
    9761           0      -181.142288  -1100.000000  -67884.61718     77.815544
    9762           0      -543.426758  -1100.000000  -67884.61718     75.938286
    9763           0      -905.711182  -1100.000000  -67884.61718     72.160568
    9764           0     -1267.995605  -1100.000000  -67884.61718     66.380402
    9765           0     -1630.279785  -1100.000000  -67884.61718     58.336472
    9766           0     -1992.564209  -1100.000000  -67884.61718     47.273800
    9767           0     -2354.849121  -1100.000000  -67884.61718     32.089108
    9768           0     -2717.133301  -1099.999878  -67884.61718     10.728958
    9769           0      2717.133057  -1100.000122  -67500.00000     19.232315
    9770           0      2354.848633  -1100.000000  -67500.00000     35.070206
    9771           0      1992.564331  -1100.000000  -67500.00000     48.811893
    9772           0      1630.279785  -1100.000000  -67500.00000     58.795837
    9773           0      1267.995483  -1100.000000  -67500.00000     66.120911
    9774           0       905.711060  -1100.000000  -67500.00000     71.348976
    9775           0       543.426575  -1100.000000  -67500.00000     74.776306
    9776           0       181.142136  -1100.000000  -67500.00000     76.481529
    9777           0      -181.142288  -1100.000000  -67500.00000     76.478065
    9778           0      -543.426758  -1100.000000  -67500.00000     74.760010
    9779           0      -905.711182  -1100.000000  -67500.00000     71.305084
    9780           0     -1267.995605  -1100.000000  -67500.00000     66.034744
    9781           0     -1630.279785  -1100.000000  -67500.00000     58.664063
    9782           0     -1992.564209  -1100.000000  -67500.00000     48.646656
    9783           0     -2354.849121  -1100.000000  -67500.00000     34.893280
    9784           0     -2717.133301  -1099.999878  -67500.00000     19.041021
    9785           0      2717.133057  -1100.000122  -67115.39062     37.015972
    9786           0      2354.848633  -1100.000000  -67115.39062     44.136513
    9787           0      1992.564331  -1100.000000  -67115.39062     50.903748
    9788           0      1630.279785  -1100.000000  -67115.39062     55.654823
    9789           0      1267.995483  -1100.000000  -67115.39062     58.846893
    9790           0       905.711060  -1100.000000  -67115.39062     61.079945
    9791           0       543.426575  -1100.000000  -67115.39062     62.560764
    9792           0       181.142136  -1100.000000  -67115.39062     63.321850
    9793           0      -181.142288  -1100.000000  -67115.39062     63.326477
    9794           0      -543.426758  -1100.000000  -67115.39062     62.569134
    9795           0      -905.711182  -1100.000000  -67115.39062     61.079845
    9796           0     -1267.995605  -1100.000000  -67115.39062     58.829453
    9797           0     -1630.279785  -1100.000000  -67115.39062     55.623562
    9798           0     -1992.564209  -1100.000000  -67115.39062     50.874187
    9799           0     -2354.849121  -1100.000000  -67115.39062     44.106339
    9800           0     -2717.133301  -1099.999878  -67115.39062     36.935810
    9801           0      2717.133057  -1100.000122  -66730.77343     51.395023
    9802           0      2354.848633  -1100.000000  -66730.77343     52.671112
    9803           0      1992.564331  -1100.000000  -66730.77343     51.815010
    9804           0      1630.279785  -1100.000000  -66730.77343     48.828529
    9805           0      1267.995483  -1100.000000  -66730.77343     44.989555
    9806           0       905.711060  -1100.000000  -66730.77343     41.401527
    9807           0       543.426575  -1100.000000  -66730.77343     38.792934
    9808           0       181.142136  -1100.000000  -66730.77343     37.449310
    9809           0      -181.142288  -1100.000000  -66730.77343     37.448486
    9810           0      -543.426758  -1100.000000  -66730.77343     38.795013
    9811           0      -905.711182  -1100.000000  -66730.77343     41.421806
    9812           0     -1267.995605  -1100.000000  -66730.77343     45.054775
    9813           0     -1630.279785  -1100.000000  -66730.77343     48.964973
    9814           0     -1992.564209  -1100.000000  -66730.77343     52.015671
    9815           0     -2354.849121  -1100.000000  -66730.77343     52.864731
    9816           0     -2717.133301  -1099.999878  -66730.77343     51.421993
    9817           0      2717.133057  -1100.000122  -66346.15625     58.396111
    9818           0      2354.848633  -1100.000000  -66346.15625     55.799282
    9819           0      1992.564331  -1100.000000  -66346.15625     49.726730
    9820           0      1630.279785  -1100.000000  -66346.15625     41.061653
    9821           0      1267.995483  -1100.000000  -66346.15625     31.471586
    9822           0       905.711060  -1100.000000  -66346.15625     22.093460
    9823           0       543.426575  -1100.000000  -66346.15625     13.450826
    9824           0       181.142136  -1100.000000  -66346.15625      6.120578
    9825           0      -181.142288  -1100.000000  -66346.15625      5.707700
    9826           0      -543.426758  -1100.000000  -66346.15625     12.990651
    9827           0      -905.711182  -1100.000000  -66346.15625     21.819296
    9828           0     -1267.995605  -1100.000000  -66346.15625     31.468098
    9829           0     -1630.279785  -1100.000000  -66346.15625     41.360271
    9830           0     -1992.564209  -1100.000000  -66346.15625     50.257107
    9831           0     -2354.849121  -1100.000000  -66346.15625     56.337017
    9832           0     -2717.133301  -1099.999878  -66346.15625     58.591770
    9833           0      2717.133057  -1100.000122  -65961.53906     52.930225
    9834           0      2354.848633  -1100.000000  -65961.53906     51.439838
    9835           0      1992.564331  -1100.000000  -65961.53906     48.912392
    9836           0      1630.279785  -1100.000000  -65961.53906     49.067612
    9837           0      1267.995483  -1100.000000  -65961.53906     52.075245
    9838           0       905.711060  -1100.000000  -65961.53906     56.287804
    9839           0       543.426575  -1100.000000  -65961.53906     59.962692
    9840           0       181.142136  -1100.000000  -65961.53906     61.981136
    9841           0      -181.142288  -1100.000000  -65961.53906     61.844803
    9842           0      -543.426758  -1100.000000  -65961.53906     59.585339
    9843           0      -905.711182  -1100.000000  -65961.53906     55.778851
    9844           0     -1267.995605  -1100.000000  -65961.53906     51.659046
    9845           0     -1630.279785  -1100.000000  -65961.53906     49.080647
    9846           0     -1992.564209  -1100.000000  -65961.53906     49.632877
    9847           0     -2354.849121  -1100.000000  -65961.53906     52.534157
    9848           0     -2717.133301  -1099.999878  -65961.53906     53.470814
    9849           0      2717.133057  -1100.000122  -65576.92187     33.212051
    9850           0      2354.848633  -1100.000000  -65576.92187     48.229549
    9851           0      1992.564331  -1100.000000  -65576.92187     70.712883
    9852           0      1630.279785  -1100.000000  -65576.92187     92.722176
    9853           0      1267.995483  -1100.000000  -65576.92187    111.691284
    9854           0       905.711060  -1100.000000  -65576.92187    126.422821
    9855           0       543.426575  -1100.000000  -65576.92187    136.387894
    9856           0       181.142136  -1100.000000  -65576.92187    141.343185
    9857           0      -181.142288  -1100.000000  -65576.92187    141.207047
    9858           0      -543.426758  -1100.000000  -65576.92187    135.998032
    9859           0      -905.711182  -1100.000000  -65576.92187    125.840363
    9860           0     -1267.995605  -1100.000000  -65576.92187    111.037575
    9861           0     -1630.279785  -1100.000000  -65576.92187     92.225990
    9862           0     -1992.564209  -1100.000000  -65576.92187     70.780342
    9863           0     -2354.849121  -1100.000000  -65576.92187     49.662605
    9864           0     -2717.133301  -1099.999878  -65576.92187     34.881046
    9865           0      2717.133057  -1100.000122  -65192.30468     40.921337
    9866           0      2354.848633  -1100.000000  -65192.30468     90.538803
    9867           0      1992.564331  -1100.000000  -65192.30468    135.111694
    9868           0      1630.279785  -1100.000000  -65192.30468    172.656723
    9869           0      1267.995483  -1100.000000  -65192.30468    202.536499
    9870           0       905.711060  -1100.000000  -65192.30468    224.737015
    9871           0       543.426575  -1100.000000  -65192.30468    239.367050
    9872           0       181.142136  -1100.000000  -65192.30468    246.567078
    9873           0      -181.142288  -1100.000000  -65192.30468    246.424622
    9874           0      -543.426758  -1100.000000  -65192.30468    238.955612
    9875           0      -905.711182  -1100.000000  -65192.30468    224.106339
    9876           0     -1267.995605  -1100.000000  -65192.30468    201.778458
    9877           0     -1630.279785  -1100.000000  -65192.30468    171.918808
    9878           0     -1992.564209  -1100.000000  -65192.30468    134.644943
    9879           0     -2354.849121  -1100.000000  -65192.30468     90.691170
    9880           0     -2717.133301  -1099.999878  -65192.30468     42.620247
    9881           0      2717.133057  -1100.000122  -64812.04687    107.221588
    9882           0      2354.848633  -1100.000000  -64812.04687    128.407364
    9883           0      1992.564331  -1100.000000  -64812.04687    157.868164
    9884           0      1630.279785  -1100.000000  -64812.04687    186.601196
    9885           0      1267.995483  -1100.000000  -64812.04687    211.143661
    9886           0       905.711060  -1100.000000  -64812.04687    230.136047
    9887           0       543.426575  -1100.000000  -64812.04687    243.062546
    9888           0       181.142136  -1100.000000  -64812.04687    249.751999
    9889           0      -181.142288  -1100.000000  -64812.04687    250.166000
    9890           0      -543.426758  -1100.000000  -64812.04687    244.321365
    9891           0      -905.711182  -1100.000000  -64812.04687    232.293915
    9892           0     -1267.995605  -1100.000000  -64812.04687    214.303558
    9893           0     -1630.279907  -1100.000000  -64812.04687    190.927963
    9894           0     -1992.564331  -1100.000000  -64812.04687    163.587830
    9895           0     -2354.849121  -1100.000000  -64812.04687    135.622925
    9896           0     -2717.133301  -1099.999878  -64812.04687    114.771477
    9897           0      2717.133057  -1100.000122  -64436.14062    159.910080
    9898           0      2354.848633  -1100.000000  -64436.14062    155.170212
    9899           0      1992.564331  -1100.000000  -64436.14062    150.826202
    9900           0      1630.279785  -1100.000000  -64436.14062    148.505219
    9901           0      1267.995483  -1100.000000  -64436.14062    148.117157
    9902           0       905.711060  -1100.000000  -64436.14062    149.067139
    9903           0       543.426575  -1100.000000  -64436.14062    150.600006
    9904           0       181.142136  -1100.000000  -64436.14062    152.128708
    9905           0      -181.142288  -1100.000000  -64436.14062    153.319519
    9906           0      -543.426758  -1100.000000  -64436.14062    154.121582
    9907           0      -905.711182  -1100.000000  -64436.14062    154.755936
    9908           0     -1267.995605  -1100.000000  -64436.14062    155.658142
    9909           0     -1630.280029  -1100.000000  -64436.14062    157.394104
    9910           0     -1992.564453  -1100.000000  -64436.14062    160.312576
    9911           0     -2354.848633  -1100.000000  -64436.14062    164.258438
    9912           0     -2717.133301  -1099.999878  -64436.14062    165.994629
    9913           0      2717.133057  -1100.000122  -64060.24218    187.109497
    9914           0      2354.848633  -1100.000000  -64060.24218    179.693039
    9915           0      1992.564331  -1100.000000  -64060.24218    164.969513
    9916           0      1630.279785  -1100.000000  -64060.24218    146.689270
    9917           0      1267.995483  -1100.000000  -64060.24218    127.513390
    9918           0       905.711060  -1100.000000  -64060.24218    109.798073
    9919           0       543.426575  -1100.000000  -64060.24218     96.300827
    9920           0       181.142136  -1100.000000  -64060.24218     89.982094
    9921           0      -181.142288  -1100.000000  -64060.24218     92.681099
    9922           0      -543.426758  -1100.000000  -64060.24218    103.553558
    9923           0      -905.711182  -1100.000000  -64060.24218    119.879883
    9924           0     -1267.995605  -1100.000000  -64060.24218    138.880173
    9925           0     -1630.280029  -1100.000000  -64060.24218    158.206161
    9926           0     -1992.564453  -1100.000000  -64060.24218    175.743240
    9927           0     -2354.848633  -1100.000000  -64060.24218    188.611923
    9928           0     -2717.133301  -1099.999878  -64060.24218    192.849014
    9929           0      2717.133057  -1100.000122  -63684.33984    199.023224
    9930           0      2354.848633  -1100.000000  -63684.33984    192.161667
    9931           0      1992.564331  -1100.000000  -63684.33984    177.998230
    9932           0      1630.279785  -1100.000000  -63684.33984    157.960693
    9933           0      1267.995483  -1100.000000  -63684.33984    134.699402
    9934           0       905.711060  -1100.000000  -63684.33984    111.146599
    9935           0       543.426575  -1100.000000  -63684.33984     91.223564
    9936           0       181.142136  -1100.000000  -63684.33984     80.636070
    9937           0      -181.142288  -1100.000000  -63684.33984     84.188873
    9938           0      -543.426758  -1100.000000  -63684.33984    100.181999
    9939           0      -905.711182  -1100.000000  -63684.33984    122.762451
    9940           0     -1267.995605  -1100.000000  -63684.33984    147.125656
    9941           0     -1630.280029  -1100.000000  -63684.33984    170.063248
    9942           0     -1992.564453  -1100.000000  -63684.33984    188.873276
    9943           0     -2354.848633  -1100.000000  -63684.33984    200.885071
    9944           0     -2717.133301  -1099.999878  -63684.33984    204.615128
    9945           0      2717.133057  -1100.000122  -63308.43359    199.509354
    9946           0      2354.848633  -1100.000000  -63308.43359    195.754166
    9947           0      1992.564331  -1100.000000  -63308.43359    185.671783
    9948           0      1630.279785  -1100.000000  -63308.43359    170.307556
    9949           0      1267.995483  -1100.000000  -63308.43359    151.731003
    9950           0       905.711060  -1100.000000  -63308.43359    132.921249
    9951           0       543.426575  -1100.000000  -63308.43359    117.631355
    9952           0       181.142136  -1100.000000  -63308.43359    110.044685
    9953           0      -181.142288  -1100.000000  -63308.43359    112.916481
    9954           0      -543.426758  -1100.000000  -63308.43359    125.321449
    9955           0      -905.711182  -1100.000000  -63308.43359    143.544708
    9956           0     -1267.995605  -1100.000000  -63308.43359    163.584229
    9957           0     -1630.280029  -1100.000000  -63308.43359    182.097717
    9958           0     -1992.564453  -1100.000000  -63308.43359    196.345856
    9959           0     -2354.848633  -1100.000000  -63308.43359    204.335236
    9960           0     -2717.133301  -1099.999878  -63308.43359    205.099274
    9961           0      2717.133057  -1100.000122  -62932.53125    193.435501
    9962           0      2354.848633  -1100.000000  -62932.53125    192.945496
    9963           0      1992.564331  -1100.000000  -62932.53125    188.909546
    9964           0      1630.279785  -1100.000000  -62932.53125    180.758453
    9965           0      1267.995483  -1100.000000  -62932.53125    169.976868
    9966           0       905.711060  -1100.000000  -62932.53125    158.890335
    9967           0       543.426575  -1100.000000  -62932.53125    150.198578
    9968           0       181.142136  -1100.000000  -62932.53125    146.328705
    9969           0      -181.142288  -1100.000000  -62932.53125    148.571625
    9970           0      -543.426758  -1100.000000  -62932.53125    156.470810
    9971           0      -905.711182  -1100.000000  -62932.53125    168.077484
    9972           0     -1267.995605  -1100.000000  -62932.53125    180.762817
    9973           0     -1630.280029  -1100.000000  -62932.53125    191.892624
    9974           0     -1992.564453  -1100.000000  -62932.53125    199.248917
    9975           0     -2354.848633  -1100.000000  -62932.53125    201.420853
    9976           0     -2717.133301  -1099.999878  -62932.53125    199.037003
    9977           0      2717.133057  -1100.000122  -62556.62500    182.736145
    9978           0      2354.848633  -1100.000000  -62556.62500    186.480484
    9979           0      1992.564331  -1100.000000  -62556.62500    189.303452
    9980           0      1630.279785  -1100.000000  -62556.62500    189.382339
    9981           0      1267.995483  -1100.000000  -62556.62500    187.053680
    9982           0       905.711060  -1100.000000  -62556.62500    183.712479
    9983           0       543.426575  -1100.000000  -62556.62500    180.981781
    9984           0       181.142136  -1100.000000  -62556.62500    180.199249
    9985           0      -181.142288  -1100.000000  -62556.62500    182.006927
    9986           0      -543.426758  -1100.000000  -62556.62500    186.154953
    9987           0      -905.711182  -1100.000000  -62556.62500    191.574371
    9988           0     -1267.995605  -1100.000000  -62556.62500    196.664429
    9989           0     -1630.280029  -1100.000000  -62556.62500    199.683685
    9990           0     -1992.564453  -1100.000000  -62556.62500    199.192413
    9991           0     -2354.848633  -1100.000000  -62556.62500    194.820328
    9992           0     -2717.133301  -1099.999878  -62556.62500    188.399765
    9993           0      2717.133057  -1100.000122  -62180.72656    169.704254
    9994           0      2354.848633  -1100.000000  -62180.72656    178.011017
    9995           0      1992.564331  -1100.000000  -62180.72656    188.336166
    9996           0      1630.279785  -1100.000000  -62180.72656    196.804779
    9997           0      1267.995483  -1100.000000  -62180.72656    202.615326
    9998           0       905.711060  -1100.000000  -62180.72656    206.240738
    9999           0       543.426575  -1100.000000  -62180.72656    208.544586
   10000           0       181.142136  -1100.000000  -62180.72656    210.263474
   10001           0      -181.142288  -1100.000000  -62180.72656    211.748367
   10002           0      -543.426758  -1100.000000  -62180.72656    212.849106
   10003           0      -905.711182  -1100.000000  -62180.72656    212.937042
   10004           0     -1267.995605  -1100.000000  -62180.72656    211.050842
   10005           0     -1630.280029  -1100.000000  -62180.72656    206.157867
   10006           0     -1992.564453  -1100.000000  -62180.72656    197.643951
   10007           0     -2354.848633  -1100.000000  -62180.72656    186.158295
   10008           0     -2717.133301  -1099.999878  -62180.72656    175.427200
   10009           0      2717.133057  -1100.000122  -61804.82421    155.430496
   10010           0      2354.848633  -1100.000000  -61804.82421    168.980072
   10011           0      1992.564331  -1100.000000  -61804.82421    187.030289
   10012           0      1630.279785  -1100.000000  -61804.82421    203.607162
   10013           0      1267.995483  -1100.000000  -61804.82421    216.797028
   10014           0       905.711060  -1100.000000  -61804.82421    226.436874
   10015           0       543.426575  -1100.000000  -61804.82421    232.917252
   10016           0       181.142136  -1100.000000  -61804.82421    236.665573
   10017           0      -181.142288  -1100.000000  -61804.82421    237.893250
   10018           0      -543.426758  -1100.000000  -61804.82421    236.504425
   10019           0      -905.711182  -1100.000000  -61804.82421    232.103149
   10020           0     -1267.995605  -1100.000000  -61804.82421    224.094803
   10021           0     -1630.280029  -1100.000000  -61804.82421    211.935333
   10022           0     -1992.564453  -1100.000000  -61804.82421    195.623886
   10023           0     -2354.848633  -1100.000000  -61804.82421    176.837814
   10024           0     -2717.133301  -1099.999878  -61804.82421    161.226196
   10025           0      2717.133057  -1100.000122  -61428.91796    141.000519
   10026           0      2354.848633  -1100.000000  -61428.91796    160.254486
   10027           0      1992.564331  -1100.000000  -61428.91796    186.055984
   10028           0      1630.279785  -1100.000000  -61428.91796    210.120773
   10029           0      1267.995483  -1100.000000  -61428.91796    229.780655
   10030           0       905.711060  -1100.000000  -61428.91796    244.494522
   10031           0       543.426575  -1100.000000  -61428.91796    254.416031
   10032           0       181.142136  -1100.000000  -61428.91796    259.810455
   10033           0      -181.142288  -1100.000000  -61428.91796    260.823608
   10034           0      -543.426758  -1100.000000  -61428.91796    257.391357
   10035           0      -905.711182  -1100.000000  -61428.91796    249.242966
   10036           0     -1267.995605  -1100.000000  -61428.91796    235.996277
   10037           0     -1630.280029  -1100.000000  -61428.91796    217.384308
   10038           0     -1992.564453  -1100.000000  -61428.91796    193.813187
   10039           0     -2354.848633  -1100.000000  -61428.91796    167.707642
   10040           0     -2717.133301  -1099.999878  -61428.91796    146.855103
   10041           0      2717.133057  -1100.000122  -61053.01171    126.984123
   10042           0      2354.848633  -1100.000000  -61053.01171    152.468811
   10043           0      1992.564331  -1100.000000  -61053.01171    185.737122
   10044           0      1630.279785  -1100.000000  -61053.01171    216.499115
   10045           0      1267.995483  -1100.000000  -61053.01171    241.686371
   10046           0       905.711060  -1100.000000  -61053.01171    260.628113
   10047           0       543.426575  -1100.000000  -61053.01171    273.368958
   10048           0       181.142136  -1100.000000  -61053.01171    280.098633
   10049           0      -181.142288  -1100.000000  -61053.01171    280.927765
   10050           0      -543.426758  -1100.000000  -61053.01171    275.811798
   10051           0      -905.711182  -1100.000000  -61053.01171    264.554108
   10052           0     -1267.995605  -1100.000000  -61053.01171    246.886398
   10053           0     -1630.280029  -1100.000000  -61053.01171    222.692581
   10054           0     -1992.564453  -1100.000000  -61053.01171    192.563217
   10055           0     -2354.848633  -1100.000000  -61053.01171    159.388031
   10056           0     -2717.133301  -1099.999878  -61053.01171    132.888138
   10057           0      2717.133057  -1100.000122  -60677.10937    113.869942
   10058           0      2354.848633  -1100.000000  -60677.10937    145.939896
   10059           0      1992.564331  -1100.000000  -60677.10937    186.176788
   10060           0      1630.279785  -1100.000000  -60677.10937    222.755768
   10061           0      1267.995483  -1100.000000  -60677.10937    252.589630
   10062           0       905.711060  -1100.000000  -60677.10937    275.020630
   10063           0       543.426575  -1100.000000  -60677.10937    290.066406
   10064           0       181.142136  -1100.000000  -60677.10937    297.877167
   10065           0      -181.142288  -1100.000000  -60677.10937    298.545624
   10066           0      -543.426758  -1100.000000  -60677.10937    292.040131
   10067           0      -905.711182  -1100.000000  -60677.10937    278.207458
   10068           0     -1267.995605  -1100.000000  -60677.10937    256.846527
   10069           0     -1630.280029  -1100.000000  -60677.10937    227.902725
   10070           0     -1992.564453  -1100.000000  -60677.10937    192.012299
   10071           0     -2354.848633  -1100.000000  -60677.10937    152.200409
   10072           0     -2717.133301  -1099.999878  -60677.10937    119.796959
   10073           0      2717.133057  -1100.000122  -60301.20312    101.914574
   10074           0      2354.848633  -1100.000000  -60301.20312    140.804398
   10075           0      1992.564331  -1100.000000  -60301.20312    187.319824
   10076           0      1630.279785  -1100.000000  -60301.20312    228.844437
   10077           0      1267.995483  -1100.000000  -60301.20312    262.534393
   10078           0       905.711060  -1100.000000  -60301.20312    287.831390
   10079           0       543.426575  -1100.000000  -60301.20312    304.756744
   10080           0       181.142136  -1100.000000  -60301.20312    313.442505
   10081           0      -181.142288  -1100.000000  -60301.20312    313.969269
   10082           0      -543.426758  -1100.000000  -60301.20312    306.313873
   10083           0      -905.711182  -1100.000000  -60301.20312    290.352875
   10084           0     -1267.995605  -1100.000000  -60301.20312    265.922363
   10085           0     -1630.280029  -1100.000000  -60301.20312    232.989838
   10086           0     -1992.564453  -1100.000000  -60301.20312    192.142365
   10087           0     -2354.848633  -1100.000000  -60301.20312    146.297348
   10088           0     -2717.133301  -1099.999878  -60301.20312    107.835922
   10089           0      2717.133057  -1100.000122  -59925.29687     91.304375
   10090           0      2354.848633  -1100.000000  -59925.29687    137.028397
   10091           0      1992.564331  -1100.000000  -59925.29687    189.035904
   10092           0      1630.279785  -1100.000000  -59925.29687    234.691956
   10093           0      1267.995483  -1100.000000  -59925.29687    271.557983
   10094           0       905.711060  -1100.000000  -59925.29687    299.199951
   10095           0       543.426575  -1100.000000  -59925.29687    317.657532
   10096           0       181.142136  -1100.000000  -59925.29687    327.050446
   10097           0      -181.142288  -1100.000000  -59925.29687    327.451202
   10098           0      -543.426758  -1100.000000  -59925.29687    318.842743
   10099           0      -905.711182  -1100.000000  -59925.29687    301.121826
   10100           0     -1267.995605  -1100.000000  -59925.29687    274.150116
   10101           0     -1630.280029  -1100.000000  -59925.29687    237.894562
   10102           0     -1992.564453  -1100.000000  -59925.29687    192.855652
   10103           0     -2354.848633  -1100.000000  -59925.29687    141.673904
   10104           0     -2717.133301  -1099.999878  -59925.29687     97.178734
   10105           0      2717.133057  -1100.000122  -59549.39843     82.116158
   10106           0      2354.848633  -1100.000000  -59549.39453    134.481110
   10107           0      1992.564331  -1100.000000  -59549.39453    191.164764
   10108           0      1630.279785  -1100.000000  -59549.39453    240.230698
   10109           0      1267.995483  -1100.000000  -59549.39453    279.697937
   10110           0       905.711060  -1100.000000  -59549.39453    309.255951
   10111           0       543.426575  -1100.000000  -59549.39453    328.961517
   10112           0       181.142136  -1100.000000  -59549.39453    338.925812
   10113           0      -181.142288  -1100.000000  -59549.39453    339.214020
   10114           0      -543.426758  -1100.000000  -59549.39453    329.813354
   10115           0      -905.711182  -1100.000000  -59549.39453    310.636963
   10116           0     -1267.995605  -1100.000000  -59549.39453    281.564056
   10117           0     -1630.280029  -1100.000000  -59549.39453    242.556473
   10118           0     -1992.564453  -1100.000000  -59549.39453    194.016953
   10119           0     -2354.848633  -1100.000000  -59549.39453    138.233688
   10120           0     -2717.133301  -1099.999878  -59549.39453     87.897125
   10121           0      2717.133057  -1100.000122  -59173.49609     74.375504
   10122           0      2354.848633  -1100.000000  -59173.49218    132.971375
   10123           0      1992.564331  -1100.000000  -59173.49218    193.551712
   10124           0      1630.279785  -1100.000000  -59173.49218    245.407364
   10125           0      1267.995483  -1100.000000  -59173.49218    286.999023
   10126           0       905.711060  -1100.000000  -59173.49218    318.120880
   10127           0       543.426575  -1100.000000  -59173.49218    338.843201
   10128           0       181.142136  -1100.000000  -59173.49218    349.268585
   10129           0      -181.142288  -1100.000000  -59173.49218    349.455750
   10130           0      -543.426758  -1100.000000  -59173.49218    339.395294
   10131           0      -905.711182  -1100.000000  -59173.49218    319.013336
   10132           0     -1267.995605  -1100.000000  -59173.49218    288.204437
   10133           0     -1630.280029  -1100.000000  -59173.49218    246.924683
   10134           0     -1992.564453  -1100.000000  -59173.49218    195.488602
   10135           0     -2354.848633  -1100.000000  -59173.49218    135.820435
   10136           0     -2717.133301  -1099.999878  -59173.49609     80.008827
   10137           0      2717.133057  -1100.000122  -58797.59375     68.046547
   10138           0      2354.848633  -1100.000000  -58797.59375    132.290848
   10139           0      1992.564331  -1100.000000  -58797.59375    196.063492
   10140           0      1630.279785  -1100.000000  -58797.59375    250.188919
   10141           0      1267.995483  -1100.000000  -58797.59375    293.512329
   10142           0       905.711060  -1100.000000  -58797.59375    325.910461
   10143           0       543.426575  -1100.000000  -58797.59375    347.461090
   10144           0       181.142136  -1100.000000  -58797.59375    358.258240
   10145           0      -181.142288  -1100.000000  -58797.59375    358.354431
   10146           0      -543.426758  -1100.000000  -58797.59375    347.742950
   10147           0      -905.711182  -1100.000000  -58797.59375    326.361206
   10148           0     -1267.995605  -1100.000000  -58797.59375    294.117279
   10149           0     -1630.280029  -1100.000000  -58797.59375    250.965103
   10150           0     -1992.564453  -1100.000000  -58797.59375    197.146973
   10151           0     -2354.848633  -1100.000000  -58797.59375    134.255844
   10152           0     -2717.133301  -1099.999878  -58797.58984     73.477623
   10153           0      2717.133057  -1100.000122  -58421.68750     63.051018
   10154           0      2354.848633  -1100.000000  -58421.69140    132.239410
   10155           0      1992.564331  -1100.000000  -58421.69140    198.594727
   10156           0      1630.279785  -1100.000000  -58421.69140    254.560547
   10157           0      1267.995483  -1100.000000  -58421.69140    299.294800
   10158           0       905.711060  -1100.000000  -58421.69140    332.734436
   10159           0       543.426575  -1100.000000  -58421.69140    354.959900
   10160           0       181.142136  -1100.000000  -58421.69140    366.056305
   10161           0      -181.142288  -1100.000000  -58421.69140    366.070374
   10162           0      -543.426758  -1100.000000  -58421.69140    354.997498
   10163           0      -905.711182  -1100.000000  -58421.69140    332.785095
   10164           0     -1267.995605  -1100.000000  -58421.69140    299.354156
   10165           0     -1630.280029  -1100.000000  -58421.69140    254.659851
   10166           0     -1992.564453  -1100.000000  -58421.69140    198.890854
   10167           0     -2354.848633  -1100.000000  -58421.69140    133.362503
   10168           0     -2717.133301  -1099.999878  -58421.68750     68.229095
   10169           0      2717.133057  -1100.000122  -58045.78125     59.268051
   10170           0      2354.848633  -1100.000000  -58045.78125    132.641251
   10171           0      1992.564331  -1100.000000  -58045.78125    201.067886
   10172           0      1630.279785  -1100.000000  -58045.78125    258.523071
   10173           0      1267.995483  -1100.000000  -58045.78125    304.406342
   10174           0       905.711060  -1100.000000  -58045.78125    338.696136
   10175           0       543.426575  -1100.000000  -58045.78125    361.471344
   10176           0       181.142136  -1100.000000  -58045.78125    372.808105
   10177           0      -181.142288  -1100.000000  -58045.78125    372.747772
   10178           0      -543.426758  -1100.000000  -58045.78125    361.287567
   10179           0      -905.711182  -1100.000000  -58045.78125    338.383789
   10180           0     -1267.995605  -1100.000000  -58045.78125    303.969879
   10181           0     -1630.280029  -1100.000000  -58045.78125    258.005646
   10182           0     -1992.564453  -1100.000000  -58045.78125    200.642914
   10183           0     -2354.848633  -1100.000000  -58045.78125    132.979599
   10184           0     -2717.133301  -1099.999878  -58045.78125     64.155396
   10185           0      2717.133057  -1100.000122  -57669.87890     56.546444
   10186           0      2354.848633  -1100.000000  -57669.87890    133.351700
   10187           0      1992.564331  -1100.000000  -57669.87890    203.429657
   10188           0      1630.279785  -1100.000000  -57669.87890    262.089172
   10189           0      1267.995483  -1100.000000  -57669.87890    308.908173
   10190           0       905.711060  -1100.000000  -57669.87890    343.891815
   10191           0       543.426575  -1100.000000  -57669.87890    367.114532
   10192           0       181.142136  -1100.000000  -57669.87890    378.643799
   10193           0      -181.142288  -1100.000000  -57669.87890    378.515930
   10194           0      -543.426758  -1100.000000  -57669.87890    366.729736
   10195           0      -905.711182  -1100.000000  -57669.87890    343.249603
   10196           0     -1267.995605  -1100.000000  -57669.87890    308.020691
   10197           0     -1630.280029  -1100.000000  -57669.87890    261.010254
   10198           0     -1992.564453  -1100.000000  -57669.87890    202.347565
   10199           0     -2354.848633  -1100.000000  -57669.87890    132.970474
   10200           0     -2717.133301  -1099.999878  -57669.87890     61.124256
   10201           0      2717.133057  -1100.000122  -57293.97656     54.715996
   10202           0      2354.848633  -1100.000000  -57293.97656    134.256973
   10203           0      1992.564331  -1100.000000  -57293.97656    205.646622
   10204           0      1630.279785  -1100.000000  -57293.97656    265.279388
   10205           0      1267.995483  -1100.000000  -57293.97656    312.860443
   10206           0       905.711060  -1100.000000  -57293.97656    348.410248
   10207           0       543.426575  -1100.000000  -57293.97656    371.997040
   10208           0       181.142136  -1100.000000  -57293.97656    383.679779
   10209           0      -181.142288  -1100.000000  -57293.97656    383.490387
   10210           0      -543.426758  -1100.000000  -57293.97656    371.429108
   10211           0      -905.711182  -1100.000000  -57293.97656    347.467651
   10212           0     -1267.995605  -1100.000000  -57293.97656    311.562286
   10213           0     -1630.280029  -1100.000000  -57293.97656    263.689423
   10214           0     -1992.564453  -1100.000000  -57293.97656    203.967606
   10215           0     -2354.848633  -1100.000000  -57293.97656    133.224319
   10216           0     -2717.133301  -1099.999878  -57293.97656     58.988884
   10217           0      2717.133057  -1100.000122  -56918.07421     53.603462
   10218           0      2354.848633  -1100.000000  -56918.07421    135.271423
   10219           0      1992.564331  -1100.000000  -56918.07421    207.700333
   10220           0      1630.279785  -1100.000000  -56918.07421    268.119568
   10221           0      1267.995483  -1100.000000  -56918.07421    316.321014
   10222           0       905.711060  -1100.000000  -56918.07421    352.332458
   10223           0       543.426575  -1100.000000  -56918.07421    376.214874
   10224           0       181.142136  -1100.000000  -56918.07421    388.019318
   10225           0      -181.142288  -1100.000000  -56918.07421    387.773834
   10226           0      -543.426758  -1100.000000  -56918.07421    375.479889
   10227           0      -905.711182  -1100.000000  -56918.07421    351.115784
   10228           0     -1267.995605  -1100.000000  -56918.07421    314.648285
   10229           0     -1630.280029  -1100.000000  -56918.07421    266.064301
   10230           0     -1992.564453  -1100.000000  -56918.07421    205.480286
   10231           0     -2354.848633  -1100.000000  -56918.07421    133.654892
   10232           0     -2717.133301  -1099.999878  -56918.07421     57.598881
   10233           0      2717.133057  -1100.000122  -56542.17187     53.046246
   10234           0      2354.848633  -1100.000000  -56542.17187    136.332596
   10235           0      1992.564331  -1100.000000  -56542.17187    209.583603
   10236           0      1630.279785  -1100.000000  -56542.17187    270.637939
   10237           0      1267.995483  -1100.000000  -56542.17187    319.344269
   10238           0       905.711060  -1100.000000  -56542.17187    355.731689
   10239           0       543.426575  -1100.000000  -56542.17187    379.853516
   10240           0       181.142136  -1100.000000  -56542.17187    391.753784
   10241           0      -181.142288  -1100.000000  -56542.17187    391.456940
   10242           0      -543.426758  -1100.000000  -56542.17187    378.965698
   10243           0      -905.711182  -1100.000000  -56542.17187    354.264221
   10244           0     -1267.995605  -1100.000000  -56542.17187    317.329193
   10245           0     -1630.280029  -1100.000000  -56542.17187    268.158691
   10246           0     -1992.564453  -1100.000000  -56542.17187    206.873703
   10247           0     -2354.848633  -1100.000000  -56542.17187    134.196976
   10248           0     -2717.133301  -1099.999878  -56542.17187     56.810745
   10249           0      2717.133057  -1100.000122  -56166.26171     52.902088
   10250           0      2354.848633  -1100.000000  -56166.26171    137.396820
   10251           0      1992.564331  -1100.000000  -56166.26171    211.296906
   10252           0      1630.279785  -1100.000000  -56166.26171    272.863770
   10253           0      1267.995483  -1100.000000  -56166.26171    321.980286
   10254           0       905.711060  -1100.000000  -56166.26171    358.673340
   10255           0       543.426575  -1100.000000  -56166.26171    382.988586
   10256           0       181.142136  -1100.000000  -56166.26171    394.963470
   10257           0      -181.142288  -1100.000000  -56166.26171    394.619507
   10258           0      -543.426758  -1100.000000  -56166.26171    381.960510
   10259           0      -905.711182  -1100.000000  -56166.26171    356.976074
   10260           0     -1267.995605  -1100.000000  -56166.26171    319.651978
   10261           0     -1630.280029  -1100.000000  -56166.26171    269.997681
   10262           0     -1992.564453  -1100.000000  -56166.26171    208.143799
   10263           0     -2354.848633  -1100.000000  -56166.26171    134.802826
   10264           0     -2717.133301  -1099.999878  -56166.26562     56.495895
   10265           0      2717.133057  -1100.000122  -55790.35937     53.053665
   10266           0      2354.848633  -1100.000000  -55790.35937    138.434296
   10267           0      1992.564331  -1100.000000  -55790.35937    212.845795
   10268           0      1630.279785  -1100.000000  -55790.35937    274.825623
   10269           0      1267.995483  -1100.000000  -55790.35937    324.274872
   10270           0       905.711060  -1100.000000  -55790.35937    361.215790
   10271           0       543.426575  -1100.000000  -55790.35937    385.686432
   10272           0       181.142136  -1100.000000  -55790.35937    397.718658
   10273           0      -181.142288  -1100.000000  -55790.35937    397.331329
   10274           0      -543.426758  -1100.000000  -55790.35937    384.529327
   10275           0      -905.711182  -1100.000000  -55790.35937    359.307190
   10276           0     -1267.995605  -1100.000000  -55790.35937    321.659119
   10277           0     -1630.280029  -1100.000000  -55790.35937    271.606201
   10278           0     -1992.564453  -1100.000000  -55790.35937    209.291840
   10279           0     -2354.848633  -1100.000000  -55790.35937    135.438324
   10280           0     -2717.133301  -1099.999878  -55790.35937     56.544289
   10281           0      2717.133057  -1100.000122  -55414.46093     53.408321
   10282           0      2354.848633  -1100.000000  -55414.46093    139.425888
   10283           0      1992.564331  -1100.000000  -55414.46093    214.239136
   10284           0      1630.279785  -1100.000000  -55414.46093    276.550720
   10285           0      1267.995483  -1100.000000  -55414.46093    326.269165
   10286           0       905.711060  -1100.000000  -55414.46093    363.410187
   10287           0       543.426575  -1100.000000  -55414.46093    388.005066
   10288           0       181.142136  -1100.000000  -55414.46093    400.080505
   10289           0      -181.142288  -1100.000000  -55414.46093    399.653168
   10290           0      -543.426758  -1100.000000  -55414.46093    386.729004
   10291           0      -905.711182  -1100.000000  -55414.46093    361.306976
   10292           0     -1267.995605  -1100.000000  -55414.46093    323.389252
   10293           0     -1630.280029  -1100.000000  -55414.46093    273.007935
   10294           0     -1992.564453  -1100.000000  -55414.46093    210.322632
   10295           0     -2354.848633  -1100.000000  -55414.46093    136.079712
   10296           0     -2717.133301  -1099.999878  -55414.45703     56.867168
   10297           0      2717.133057  -1100.000122  -55038.55468     53.895699
   10298           0      2354.848633  -1100.000000  -55038.55468    140.360367
   10299           0      1992.564331  -1100.000000  -55038.55468    215.486786
   10300           0      1630.279785  -1100.000000  -55038.55468    278.064606
   10301           0      1267.995483  -1100.000000  -55038.55468    327.999725
   10302           0       905.711060  -1100.000000  -55038.55468    365.301605
   10303           0       543.426575  -1100.000000  -55038.55468    389.994965
   10304           0       181.142136  -1100.000000  -55038.55468    402.102081
   10305           0      -181.142288  -1100.000000  -55038.55468    401.637695
   10306           0      -543.426758  -1100.000000  -55038.55468    388.608887
   10307           0      -905.711182  -1100.000000  -55038.55468    363.018646
   10308           0     -1267.995605  -1100.000000  -55038.55468    324.876404
   10309           0     -1630.280029  -1100.000000  -55038.55468    274.225616
   10310           0     -1992.564453  -1100.000000  -55038.55468    211.242584
   10311           0     -2354.848633  -1100.000000  -55038.55468    136.711594
   10312           0     -2717.133301  -1099.999878  -55038.55468     57.392189
   10313           0      2717.133057  -1100.000122  -54662.65234     54.465260
   10314           0      2354.848633  -1100.000000  -54662.64843    141.229843
   10315           0      1992.564331  -1100.000000  -54662.64843    216.600815
   10316           0      1630.279785  -1100.000000  -54662.64843    279.390106
   10317           0      1267.995483  -1100.000000  -54662.64843    329.498840
   10318           0       905.711060  -1100.000000  -54662.64843    366.929199
   10319           0       543.426575  -1100.000000  -54662.64843    391.699799
   10320           0       181.142136  -1100.000000  -54662.64843    403.829071
   10321           0      -181.142288  -1100.000000  -54662.64843    403.330383
   10322           0      -543.426758  -1100.000000  -54662.64843    390.211639
   10323           0      -905.711182  -1100.000000  -54662.64843    364.479767
   10324           0     -1267.995605  -1100.000000  -54662.64843    326.150848
   10325           0     -1630.280029  -1100.000000  -54662.64843    275.279358
   10326           0     -1992.564453  -1100.000000  -54662.64843    212.060257
   10327           0     -2354.848633  -1100.000000  -54662.64843    137.322128
   10328           0     -2717.133301  -1099.999878  -54662.64843     58.069996
   10329           0      2717.133057  -1100.000122  -54286.74609     55.077492
   10330           0      2354.848633  -1100.000000  -54286.74218    142.033569
   10331           0      1992.564331  -1100.000000  -54286.74218    217.592102
   10332           0      1630.279785  -1100.000000  -54286.74218    280.548187
   10333           0      1267.995483  -1100.000000  -54286.74218    330.795197
   10334           0       905.711060  -1100.000000  -54286.74218    368.326965
   10335           0       543.426575  -1100.000000  -54286.74218    393.157257
   10336           0       181.142136  -1100.000000  -54286.74218    405.301056
   10337           0      -181.142288  -1100.000000  -54286.74218    404.770386
   10338           0      -543.426758  -1100.000000  -54286.74218    391.574310
   10339           0      -905.711182  -1100.000000  -54286.74218    365.722961
   10340           0     -1267.995605  -1100.000000  -54286.74218    327.239197
   10341           0     -1630.280029  -1100.000000  -54286.74218    276.187653
   10342           0     -1992.564453  -1100.000000  -54286.74218    212.783844
   10343           0     -2354.848633  -1100.000000  -54286.74218    137.906342
   10344           0     -2717.133301  -1099.999878  -54286.74218     58.849480
   10345           0      2717.133057  -1100.000122  -53910.84375     55.702644
   10346           0      2354.848633  -1100.000000  -53910.83984    142.773224
   10347           0      1992.564331  -1100.000000  -53910.83984    218.469894
   10348           0      1630.279785  -1100.000000  -53910.83984    281.557556
   10349           0      1267.995483  -1100.000000  -53910.83984    331.912842
   10350           0       905.711060  -1100.000000  -53910.83984    369.524048
   10351           0       543.426575  -1100.000000  -53910.83984    394.399506
   10352           0       181.142136  -1100.000000  -53910.83984    406.551514
   10353           0      -181.142288  -1100.000000  -53910.83984    405.991028
   10354           0      -543.426758  -1100.000000  -53910.83984    392.728027
   10355           0      -905.711182  -1100.000000  -53910.83984    366.776245
   10356           0     -1267.995605  -1100.000000  -53910.83984    328.164093
   10357           0     -1630.280029  -1100.000000  -53910.83984    276.967194
   10358           0     -1992.564453  -1100.000000  -53910.83984    213.420090
   10359           0     -2354.848633  -1100.000000  -53910.83984    138.464432
   10360           0     -2717.133301  -1099.999878  -53910.83984     59.713192
   10361           0      2717.133057  -1100.000122  -53534.93750     56.330791
   10362           0      2354.848633  -1100.000000  -53534.94140    143.445114
   10363           0      1992.564331  -1100.000000  -53534.94140    219.246002
   10364           0      1630.279785  -1100.000000  -53534.94140    282.433716
   10365           0      1267.995483  -1100.000000  -53534.94140    332.873322
   10366           0       905.711060  -1100.000000  -53534.94140    370.545258
   10367           0       543.426575  -1100.000000  -53534.94140    395.453918
   10368           0       181.142136  -1100.000000  -53534.94140    407.608887
   10369           0      -181.142288  -1100.000000  -53534.94140    407.020508
   10370           0      -543.426758  -1100.000000  -53534.94140    393.699768
   10371           0      -905.711182  -1100.000000  -53534.94140    367.663269
   10372           0     -1267.995605  -1100.000000  -53534.94140    328.945465
   10373           0     -1630.280029  -1100.000000  -53534.94140    277.631622
   10374           0     -1992.564453  -1100.000000  -53534.94140    213.978607
   10375           0     -2354.848633  -1100.000000  -53534.94140    138.987595
   10376           0     -2717.133301  -1099.999878  -53534.93750     60.627048
   10377           0      2717.133057  -1100.000122  -53159.03906     56.946056
   10378           0      2354.848633  -1100.000000  -53159.03906    144.053482
   10379           0      1992.564331  -1100.000000  -53159.03906    219.928284
   10380           0      1630.279785  -1100.000000  -53159.03906    283.191437
   10381           0      1267.995483  -1100.000000  -53159.03906    333.694916
   10382           0       905.711060  -1100.000000  -53159.03906    371.412201
   10383           0       543.426575  -1100.000000  -53159.03906    396.344025
   10384           0       181.142136  -1100.000000  -53159.03906    408.497833
   10385           0      -181.142288  -1100.000000  -53159.03906    407.883301
   10386           0      -543.426758  -1100.000000  -53159.03906    394.512451
   10387           0      -905.711182  -1100.000000  -53159.03906    368.404877
   10388           0     -1267.995605  -1100.000000  -53159.03906    329.600220
   10389           0     -1630.280029  -1100.000000  -53159.03906    278.194305
   10390           0     -1992.564453  -1100.000000  -53159.03906    214.465088
   10391           0     -2354.848633  -1100.000000  -53159.03906    139.479630
   10392           0     -2717.133301  -1099.999878  -53159.03906     61.587479
   10393           0      2717.133057  -1100.000122  -52783.13281     57.538555
   10394           0      2354.848633  -1100.000000  -52783.13281    144.602814
   10395           0      1992.564331  -1100.000000  -52783.13281    220.524551
   10396           0      1630.279785  -1100.000000  -52783.13281    283.842957
   10397           0      1267.995483  -1100.000000  -52783.13281    334.393097
   10398           0       905.711060  -1100.000000  -52783.13281    372.143066
   10399           0       543.426575  -1100.000000  -52783.13281    397.089722
   10400           0       181.142136  -1100.000000  -52783.13281    409.238892
   10401           0      -181.142288  -1100.000000  -52783.13281    408.599823
   10402           0      -543.426758  -1100.000000  -52783.13281    395.185486
   10403           0      -905.711182  -1100.000000  -52783.13281    369.018188
   10404           0     -1267.995605  -1100.000000  -52783.13281    330.143127
   10405           0     -1630.280029  -1100.000000  -52783.13281    278.665771
   10406           0     -1992.564453  -1100.000000  -52783.13281    214.886017
   10407           0     -2354.848633  -1100.000000  -52783.13281    139.942200
   10408           0     -2717.133301  -1099.999878  -52783.13281     62.573303
   10409           0      2717.133057  -1100.000122  -52407.22656     58.104271
   10410           0      2354.848633  -1100.000000  -52407.22656    145.094299
   10411           0      1992.564331  -1100.000000  -52407.22656    221.042816
   10412           0      1630.279785  -1100.000000  -52407.22656    284.398376
   10413           0      1267.995483  -1100.000000  -52407.22656    334.981262
   10414           0       905.711060  -1100.000000  -52407.22656    372.752991
   10415           0       543.426575  -1100.000000  -52407.22656    397.707672
   10416           0       181.142136  -1100.000000  -52407.22656    409.849365
   10417           0      -181.142288  -1100.000000  -52407.22656    409.187103
   10418           0      -543.426758  -1100.000000  -52407.22656    395.734985
   10419           0      -905.711182  -1100.000000  -52407.22656    369.517914
   10420           0     -1267.995605  -1100.000000  -52407.22656    330.586243
   10421           0     -1630.280029  -1100.000000  -52407.22656    279.055237
   10422           0     -1992.564453  -1100.000000  -52407.22656    215.247803
   10423           0     -2354.848633  -1100.000000  -52407.22656    140.374649
   10424           0     -2717.133301  -1099.999878  -52407.22656     63.581406
   10425           0      2717.133057  -1100.000122  -52031.32421     58.640320
   10426           0      2354.848633  -1100.000000  -52031.32421    145.531036
   10427           0      1992.564331  -1100.000000  -52031.32421    221.488693
   10428           0      1630.279785  -1100.000000  -52031.32421    284.866974
   10429           0      1267.995483  -1100.000000  -52031.32421    335.470367
   10430           0       905.711060  -1100.000000  -52031.32421    373.254974
   10431           0       543.426575  -1100.000000  -52031.32421    398.211731
   10432           0       181.142136  -1100.000000  -52031.32421    410.343689
   10433           0      -181.142288  -1100.000000  -52031.32421    409.659546
   10434           0      -543.426758  -1100.000000  -52031.32421    396.174561
   10435           0      -905.711182  -1100.000000  -52031.32421    369.916260
   10436           0     -1267.995605  -1100.000000  -52031.32421    330.939911
   10437           0     -1630.280029  -1100.000000  -52031.32421    279.370819
   10438           0     -1992.564453  -1100.000000  -52031.32421    215.554871
   10439           0     -2354.848633  -1100.000000  -52031.32421    140.779053
   10440           0     -2717.133301  -1099.999878  -52031.32421     64.604736
   10441           0      2717.133057  -1100.000122  -51655.42187     59.144997
   10442           0      2354.848633  -1100.000000  -51655.42578    145.915680
   10443           0      1992.564331  -1100.000000  -51655.42578    221.867584
   10444           0      1630.279785  -1100.000000  -51655.42578    285.256012
   10445           0      1267.995483  -1100.000000  -51655.42578    335.869812
   10446           0       905.711060  -1100.000000  -51655.42578    373.659424
   10447           0       543.426575  -1100.000000  -51655.42578    398.613495
   10448           0       181.142136  -1100.000000  -51655.42578    410.733734
   10449           0      -181.142288  -1100.000000  -51655.42578    410.028900
   10450           0      -543.426758  -1100.000000  -51655.42578    396.515411
   10451           0      -905.711182  -1100.000000  -51655.42578    370.223297
   10452           0     -1267.995605  -1100.000000  -51655.42578    331.212708
   10453           0     -1630.280029  -1100.000000  -51655.42578    279.618988
   10454           0     -1992.564453  -1100.000000  -51655.42578    215.811722
   10455           0     -2354.848633  -1100.000000  -51655.42578    141.156586
   10456           0     -2717.133301  -1099.999878  -51655.42187     65.640526
   10457           0      2717.133057  -1100.000122  -51279.51562     59.617836
   10458           0      2354.848633  -1100.000000  -51279.51562    146.250595
   10459           0      1992.564331  -1100.000000  -51279.51562    222.183914
   10460           0      1630.279785  -1100.000000  -51279.51562    285.571777
   10461           0      1267.995483  -1100.000000  -51279.51562    336.187042
   10462           0       905.711060  -1100.000000  -51279.51562    373.975159
   10463           0       543.426575  -1100.000000  -51279.51562    398.922241
   10464           0       181.142136  -1100.000000  -51279.51562    411.029236
   10465           0      -181.142288  -1100.000000  -51279.51562    410.304901
   10466           0      -543.426758  -1100.000000  -51279.51562    396.766693
   10467           0      -905.711182  -1100.000000  -51279.51562    370.447266
   10468           0     -1267.995605  -1100.000000  -51279.51562    331.411713
   10469           0     -1630.280029  -1100.000000  -51279.51562    279.805237
   10470           0     -1992.564453  -1100.000000  -51279.51562    216.021881
   10471           0     -2354.848633  -1100.000000  -51279.51562    141.508881
   10472           0     -2717.133301  -1099.999878  -51279.51562     66.686012
   10473           0      2717.133057  -1100.000122  -50903.60937     60.058891
   10474           0      2354.848633  -1100.000000  -50903.60937    146.537903
   10475           0      1992.564331  -1100.000000  -50903.60937    222.441391
   10476           0      1630.279785  -1100.000000  -50903.60937    285.819153
   10477           0      1267.995483  -1100.000000  -50903.60937    336.428314
   10478           0       905.711060  -1100.000000  -50903.60937    374.209137
   10479           0       543.426575  -1100.000000  -50903.60937    399.145660
   10480           0       181.142136  -1100.000000  -50903.60937    411.238007
   10481           0      -181.142288  -1100.000000  -50903.60937    410.495148
   10482           0      -543.426758  -1100.000000  -50903.60937    396.935791
   10483           0      -905.711182  -1100.000000  -50903.60937    370.594940
   10484           0     -1267.995605  -1100.000000  -50903.60937    331.542603
   10485           0     -1630.280029  -1100.000000  -50903.60937    279.934113
   10486           0     -1992.564453  -1100.000000  -50903.60937    216.188461
   10487           0     -2354.848633  -1100.000000  -50903.60937    141.837341
   10488           0     -2717.133301  -1099.999878  -50903.60937     67.740097
   10489           0      2717.133057  -1100.000122  -50527.71093     60.468746
   10490           0      2354.848633  -1100.000000  -50527.70703    146.779510
   10491           0      1992.564331  -1100.000000  -50527.70703    222.642944
   10492           0      1630.279785  -1100.000000  -50527.70703    286.002228
   10493           0      1267.995483  -1100.000000  -50527.70703    336.598389
   10494           0       905.711060  -1100.000000  -50527.70703    374.366791
   10495           0       543.426575  -1100.000000  -50527.70703    399.289551
   10496           0       181.142136  -1100.000000  -50527.70703    411.366119
   10497           0      -181.142288  -1100.000000  -50527.70703    410.605774
   10498           0      -543.426758  -1100.000000  -50527.70703    397.028320
   10499           0      -905.711182  -1100.000000  -50527.70703    370.671356
   10500           0     -1267.995605  -1100.000000  -50527.70703    331.609741
   10501           0     -1630.280029  -1100.000000  -50527.70703    280.009003
   10502           0     -1992.564453  -1100.000000  -50527.70703    216.313950
   10503           0     -2354.848633  -1100.000000  -50527.70703    142.143250
   10504           0     -2717.133301  -1099.999878  -50527.71093     68.802048
   10505           0      2717.133057  -1100.000122  -50151.80468     60.848309
   10506           0      2354.848633  -1100.000000  -50151.80078    146.976852
   10507           0      1992.564331  -1100.000000  -50151.80078    222.790878
   10508           0      1630.279785  -1100.000000  -50151.80078    286.123962
   10509           0      1267.995483  -1100.000000  -50151.80078    336.700867
   10510           0       905.711060  -1100.000000  -50151.80078    374.452148
   10511           0       543.426575  -1100.000000  -50151.80078    399.358276
   10512           0       181.142136  -1100.000000  -50151.80078    411.418091
   10513           0      -181.142288  -1100.000000  -50151.80078    410.641174
   10514           0      -543.426758  -1100.000000  -50151.80078    397.048615
   10515           0      -905.711182  -1100.000000  -50151.80078    370.680481
   10516           0     -1267.995605  -1100.000000  -50151.80078    331.616547
   10517           0     -1630.280029  -1100.000000  -50151.80078    280.032806
   10518           0     -1992.564453  -1100.000000  -50151.80078    216.400330
   10519           0     -2354.848633  -1100.000000  -50151.80078    142.427933
   10520           0     -2717.133301  -1099.999878  -50151.80468     69.871895
   10521           0      2717.133057  -1100.000122  -49775.90234     61.198792
   10522           0      2354.848633  -1100.000000  -49775.90234    147.131226
   10523           0      1992.564331  -1100.000000  -49775.90234    222.886902
   10524           0      1630.279785  -1100.000000  -49775.90234    286.186462
   10525           0      1267.995483  -1100.000000  -49775.90234    336.738281
   10526           0       905.711060  -1100.000000  -49775.90234    374.468140
   10527           0       543.426575  -1100.000000  -49775.90234    399.354858
   10528           0       181.142136  -1100.000000  -49775.90234    411.396912
   10529           0      -181.142288  -1100.000000  -49775.90234    410.604431
   10530           0      -543.426758  -1100.000000  -49775.90234    396.999573
   10531           0      -905.711182  -1100.000000  -49775.90234    370.624969
   10532           0     -1267.995605  -1100.000000  -49775.90234    331.565338
   10533           0     -1630.280029  -1100.000000  -49775.90234    280.007324
   10534           0     -1992.564453  -1100.000000  -49775.90234    216.449081
   10535           0     -2354.848633  -1100.000000  -49775.90234    142.692444
   10536           0     -2717.133301  -1099.999878  -49775.90234     70.949913
   10537           0      2717.133057  -1100.000122  -49400.00000     61.521549
   10538           0      2354.848633  -1100.000000  -49400.00000    147.243576
   10539           0      1992.564331  -1100.000000  -49400.00000    222.932098
   10540           0      1630.279785  -1100.000000  -49400.00000    286.191040
   10541           0      1267.995483  -1100.000000  -49400.00000    336.712006
   10542           0       905.711060  -1100.000000  -49400.00000    374.416260
   10543           0       543.426575  -1100.000000  -49400.00000    399.281006
   10544           0       181.142136  -1100.000000  -49400.00000    411.304504
   10545           0      -181.142288  -1100.000000  -49400.00000    410.497284
   10546           0      -543.426758  -1100.000000  -49400.00000    396.882843
   10547           0      -905.711182  -1100.000000  -49400.00000    370.506348
   10548           0     -1267.995605  -1100.000000  -49400.00000    331.457520
   10549           0     -1630.279907  -1100.000000  -49400.00000    279.933807
   10550           0     -1992.564331  -1100.000000  -49400.00000    216.461304
   10551           0     -2354.848633  -1100.000000  -49400.00000    142.937851
   10552           0     -2717.133301  -1099.999878  -49400.00000     72.036903
   10553           0      2717.133057  -1100.000122  -49024.09375     61.818283
   10554           0      2354.848633  -1100.000000  -49024.09375    147.314651
   10555           0      1992.564331  -1100.000000  -49024.09375    222.926987
   10556           0      1630.279785  -1100.000000  -49024.09375    286.138184
   10557           0      1267.995483  -1100.000000  -49024.09375    336.622589
   10558           0       905.711060  -1100.000000  -49024.09375    374.296936
   10559           0       543.426575  -1100.000000  -49024.09375    399.137146
   10560           0       181.142136  -1100.000000  -49024.09375    411.141174
   10561           0      -181.142288  -1100.000000  -49024.09375    410.320190
   10562           0      -543.426758  -1100.000000  -49024.09375    396.698914
   10563           0      -905.711182  -1100.000000  -49024.09375    370.325134
   10564           0     -1267.995605  -1100.000000  -49024.09375    331.293579
   10565           0     -1630.279785  -1100.000000  -49024.09375    279.812805
   10566           0     -1992.564209  -1100.000000  -49024.09375    216.437622
   10567           0     -2354.849121  -1100.000000  -49024.09375    143.165085
   10568           0     -2717.133301  -1099.999878  -49024.09375     73.133896
   10569           0      2717.133057  -1100.000122  -48648.18750     62.090889
   10570           0      2354.848633  -1100.000000  -48648.18359    147.344910
   10571           0      1992.564331  -1100.000000  -48648.18359    222.871536
   10572           0      1630.279785  -1100.000000  -48648.18359    286.027435
   10573           0      1267.995483  -1100.000000  -48648.18359    336.469421
   10574           0       905.711060  -1100.000000  -48648.18359    374.109589
   10575           0       543.426575  -1100.000000  -48648.18359    398.922516
   10576           0       181.142136  -1100.000000  -48648.18359    410.906158
   10577           0      -181.142288  -1100.000000  -48648.18359    410.072235
   10578           0      -543.426758  -1100.000000  -48648.18359    396.446960
   10579           0      -905.711182  -1100.000000  -48648.18359    370.080597
   10580           0     -1267.995605  -1100.000000  -48648.18359    331.073059
   10581           0     -1630.279785  -1100.000000  -48648.18359    279.644104
   10582           0     -1992.564209  -1100.000000  -48648.18359    216.378342
   10583           0     -2354.849121  -1100.000000  -48648.18359    143.375076
   10584           0     -2717.133301  -1099.999878  -48648.18750     74.242287
   10585           0      2717.133057  -1100.000122  -48272.28906     62.341686
   10586           0      2354.848633  -1100.000000  -48272.28515    147.334412
   10587           0      1992.564331  -1100.000000  -48272.28515    222.765152
   10588           0      1630.279785  -1100.000000  -48272.28515    285.857880
   10589           0      1267.995483  -1100.000000  -48272.28515    336.250977
   10590           0       905.711060  -1100.000000  -48272.28515    373.852264
   10591           0       543.426575  -1100.000000  -48272.28515    398.635010
   10592           0       181.142136  -1100.000000  -48272.28515    410.597229
   10593           0      -181.142288  -1100.000000  -48272.28515    409.751404
   10594           0      -543.426758  -1100.000000  -48272.28515    396.125031
   10595           0      -905.711182  -1100.000000  -48272.28515    369.771118
   10596           0     -1267.995605  -1100.000000  -48272.28515    330.794708
   10597           0     -1630.279785  -1100.000000  -48272.28515    279.426971
   10598           0     -1992.564209  -1100.000000  -48272.28515    216.283264
   10599           0     -2354.849121  -1100.000000  -48272.28515    143.568634
   10600           0     -2717.133301  -1099.999878  -48272.28906     75.363838
   10601           0      2717.133057  -1100.000122  -47896.38671     62.572929
   10602           0      2354.848633  -1100.000000  -47896.38281    147.283417
   10603           0      1992.564331  -1100.000000  -47896.38281    222.606735
   10604           0      1630.279785  -1100.000000  -47896.38281    285.627289
   10605           0      1267.995483  -1100.000000  -47896.38281    335.964722
   10606           0       905.711060  -1100.000000  -47896.38281    373.521881
   10607           0       543.426575  -1100.000000  -47896.38281    398.271301
   10608           0       181.142136  -1100.000000  -47896.38281    410.210968
   10609           0      -181.142288  -1100.000000  -47896.38281    409.354218
   10610           0      -543.426758  -1100.000000  -47896.38281    395.730011
   10611           0      -905.711182  -1100.000000  -47896.38281    369.393890
   10612           0     -1267.995605  -1100.000000  -47896.38281    330.456085
   10613           0     -1630.279785  -1100.000000  -47896.38281    279.159943
   10614           0     -1992.564209  -1100.000000  -47896.38281    216.151917
   10615           0     -2354.849121  -1100.000000  -47896.38281    143.746597
   10616           0     -2717.133301  -1099.999878  -47896.38281     76.500687
   10617           0      2717.133057  -1100.000122  -47520.47656     62.788136
   10618           0      2354.848633  -1100.000000  -47520.47656    147.191788
   10619           0      1992.564331  -1100.000000  -47520.47656    222.394424
   10620           0      1630.279785  -1100.000000  -47520.47656    285.333038
   10621           0      1267.995483  -1100.000000  -47520.47656    335.606781
   10622           0       905.711060  -1100.000000  -47520.47656    373.114227
   10623           0       543.426575  -1100.000000  -47520.47656    397.826569
   10624           0       181.142136  -1100.000000  -47520.47656    409.742462
   10625           0      -181.142288  -1100.000000  -47520.47656    408.875793
   10626           0      -543.426758  -1100.000000  -47520.47656    395.257172
   10627           0      -905.711182  -1100.000000  -47520.47656    368.944794
   10628           0     -1267.995605  -1100.000000  -47520.47656    330.054199
   10629           0     -1630.279785  -1100.000000  -47520.47656    278.840668
   10630           0     -1992.564209  -1100.000000  -47520.47656    215.983398
   10631           0     -2354.849121  -1100.000000  -47520.47656    143.909927
   10632           0     -2717.133301  -1099.999878  -47520.47656     77.655373
   10633           0      2717.133057  -1100.000122  -47144.57812     62.991959
   10634           0      2354.848633  -1100.000000  -47144.57812    147.058640
   10635           0      1992.564331  -1100.000000  -47144.57812    222.126099
   10636           0      1630.279785  -1100.000000  -47144.57812    284.971161
   10637           0      1267.995483  -1100.000000  -47144.57812    335.172394
   10638           0       905.711060  -1100.000000  -47144.57812    372.623260
   10639           0       543.426575  -1100.000000  -47144.57812    397.294495
   10640           0       181.142136  -1100.000000  -47144.57812    409.184937
   10641           0      -181.142288  -1100.000000  -47144.57812    408.309601
   10642           0      -543.426758  -1100.000000  -47144.57812    394.700531
   10643           0      -905.711182  -1100.000000  -47144.57812    368.418549
   10644           0     -1267.995605  -1100.000000  -47144.57812    329.584595
   10645           0     -1630.279785  -1100.000000  -47144.57812    278.466278
   10646           0     -1992.564209  -1100.000000  -47144.57812    215.776459
   10647           0     -2354.849121  -1100.000000  -47144.57812    144.059525
   10648           0     -2717.133301  -1099.999878  -47144.57812     78.831245
   10649           0      2717.133057  -1100.000122  -46768.67968     63.187874
   10650           0      2354.848633  -1100.000000  -46768.68359    146.884384
   10651           0      1992.564331  -1100.000000  -46768.68359    221.798691
   10652           0      1630.279785  -1100.000000  -46768.68359    284.537048
   10653           0      1267.995483  -1100.000000  -46768.68359    334.655060
   10654           0       905.711060  -1100.000000  -46768.68359    372.041840
   10655           0       543.426575  -1100.000000  -46768.68359    396.667114
   10656           0       181.142136  -1100.000000  -46768.68359    408.530273
   10657           0      -181.142288  -1100.000000  -46768.68359    407.647491
   10658           0      -543.426758  -1100.000000  -46768.68359    394.052338
   10659           0      -905.711182  -1100.000000  -46768.68359    367.808350
   10660           0     -1267.995605  -1100.000000  -46768.68359    329.041748
   10661           0     -1630.279785  -1100.000000  -46768.68359    278.032990
   10662           0     -1992.564209  -1100.000000  -46768.68359    215.529419
   10663           0     -2354.849121  -1100.000000  -46768.68359    144.196732
   10664           0     -2717.133301  -1099.999878  -46768.67968     80.031868
   10665           0      2717.133057  -1100.000122  -46392.77343     63.382153
   10666           0      2354.848633  -1100.000000  -46392.77343    146.668335
   10667           0      1992.564331  -1100.000000  -46392.77343    221.408752
   10668           0      1630.279785  -1100.000000  -46392.77343    284.024536
   10669           0      1267.995483  -1100.000000  -46392.77343    334.047394
   10670           0       905.711060  -1100.000000  -46392.77343    371.360840
   10671           0       543.426575  -1100.000000  -46392.77343    395.934448
   10672           0       181.142136  -1100.000000  -46392.77343    407.768097
   10673           0      -181.142288  -1100.000000  -46392.77343    406.879211
   10674           0      -543.426758  -1100.000000  -46392.77343    393.303040
   10675           0      -905.711182  -1100.000000  -46392.77343    367.105774
   10676           0     -1267.995605  -1100.000000  -46392.77343    328.419037
   10677           0     -1630.279785  -1100.000000  -46392.77343    277.535980
   10678           0     -1992.564209  -1100.000000  -46392.77343    215.240448
   10679           0     -2354.849121  -1100.000000  -46392.77343    144.322830
   10680           0     -2717.133301  -1099.999878  -46392.77343     81.262703
   10681           0      2717.133057  -1100.000122  -46016.86718     63.584076
   10682           0      2354.848633  -1100.000000  -46016.86328    146.410095
   10683           0      1992.564331  -1100.000000  -46016.86328    220.951599
   10684           0      1630.279785  -1100.000000  -46016.86328    283.426788
   10685           0      1267.995483  -1100.000000  -46016.86328    333.339722
   10686           0       905.711060  -1100.000000  -46016.86328    370.569214
   10687           0       543.426575  -1100.000000  -46016.86328    395.084198
   10688           0       181.142136  -1100.000000  -46016.86328    406.885742
   10689           0      -181.142288  -1100.000000  -46016.86328    405.992371
   10690           0      -543.426758  -1100.000000  -46016.86328    392.441071
   10691           0      -905.711182  -1100.000000  -46016.86328    366.300629
   10692           0     -1267.995605  -1100.000000  -46016.86328    327.708130
   10693           0     -1630.279785  -1100.000000  -46016.86328    276.969940
   10694           0     -1992.564209  -1100.000000  -46016.86328    214.906784
   10695           0     -2354.849121  -1100.000000  -46016.86328    144.440369
   10696           0     -2717.133301  -1099.999878  -46016.86718     82.528137
   10697           0      2717.133057  -1100.000122  -45640.96093     63.802574
   10698           0      2354.848633  -1100.000000  -45640.95703    146.108719
   10699           0      1992.564331  -1100.000000  -45640.95703    220.422958
   10700           0      1630.279785  -1100.000000  -45640.95703    282.735199
   10701           0      1267.995483  -1100.000000  -45640.95703    332.520844
   10702           0       905.711060  -1100.000000  -45640.95703    369.653625
   10703           0       543.426575  -1100.000000  -45640.95703    394.101959
   10704           0       181.142136  -1100.000000  -45640.95703    405.868073
   10705           0      -181.142288  -1100.000000  -45640.95703    404.972015
   10706           0      -543.426758  -1100.000000  -45640.95703    391.452393
   10707           0      -905.711182  -1100.000000  -45640.95703    365.380676
   10708           0     -1267.995605  -1100.000000  -45640.95703    326.899200
   10709           0     -1630.279785  -1100.000000  -45640.95703    276.328064
   10710           0     -1992.564209  -1100.000000  -45640.95703    214.526321
   10711           0     -2354.849121  -1100.000000  -45640.95703    144.550354
   10712           0     -2717.133301  -1099.999878  -45640.96093     83.839996
   10713           0      2717.133057  -1100.000122  -45265.05468     64.050644
   10714           0      2354.848633  -1100.000000  -45265.04687    145.766098
   10715           0      1992.564331  -1100.000000  -45265.04687    219.817291
   10716           0      1630.279785  -1100.000000  -45265.04687    281.939209
   10717           0      1267.995483  -1100.000000  -45265.04687    331.577423
   10718           0       905.711060  -1100.000000  -45265.04687    368.598114
   10719           0       543.426575  -1100.000000  -45265.04687    392.970093
   10720           0       181.142136  -1100.000000  -45265.04687    404.696869
   10721           0      -181.142288  -1100.000000  -45265.04687    403.800049
   10722           0      -543.426758  -1100.000000  -45265.04687    390.320160
   10723           0      -905.711182  -1100.000000  -45265.04687    364.330994
   10724           0     -1267.995605  -1100.000000  -45265.04687    325.980621
   10725           0     -1630.279785  -1100.000000  -45265.04687    275.602203
   10726           0     -1992.564209  -1100.000000  -45265.04687    214.096481
   10727           0     -2354.849121  -1100.000000  -45265.04687    144.656601
   10728           0     -2717.133301  -1099.999878  -45265.05468     85.197533
   10729           0      2717.133057  -1100.000122  -44889.15234     64.340279
   10730           0      2354.848633  -1100.000000  -44889.14843    145.385498
   10731           0      1992.564331  -1100.000000  -44889.14843    219.126526
   10732           0      1630.279785  -1100.000000  -44889.14843    281.028351
   10733           0      1267.995483  -1100.000000  -44889.14843    330.493805
   10734           0       905.711060  -1100.000000  -44889.14843    367.384308
   10735           0       543.426575  -1100.000000  -44889.14843    391.668243
   10736           0       181.142136  -1100.000000  -44889.14843    403.350861
   10737           0      -181.142288  -1100.000000  -44889.14843    402.455719
   10738           0      -543.426758  -1100.000000  -44889.14843    389.024872
   10739           0      -905.711182  -1100.000000  -44889.14843    363.134888
   10740           0     -1267.995605  -1100.000000  -44889.14843    324.938751
   10741           0     -1630.279785  -1100.000000  -44889.14843    274.784424
   10742           0     -1992.564209  -1100.000000  -44889.14843    213.612534
   10743           0     -2354.849121  -1100.000000  -44889.14843    144.769440
   10744           0     -2717.133301  -1099.999878  -44889.15234     86.626205
   10745           0      2717.133057  -1100.000122  -44513.25000     64.701401
   10746           0      2354.848633  -1100.000000  -44513.25390    144.963715
   10747           0      1992.564331  -1100.000000  -44513.25390    218.346680
   10748           0      1630.279785  -1100.000000  -44513.25390    279.988586
   10749           0      1267.995483  -1100.000000  -44513.25390    329.251892
   10750           0       905.711060  -1100.000000  -44513.25390    365.990173
   10751           0       543.426575  -1100.000000  -44513.25390    390.172119
   10752           0       181.142136  -1100.000000  -44513.25390    401.804840
   10753           0      -181.142288  -1100.000000  -44513.25390    400.913818
   10754           0      -543.426758  -1100.000000  -44513.25390    387.543304
   10755           0      -905.711182  -1100.000000  -44513.25390    361.771881
   10756           0     -1267.995605  -1100.000000  -44513.25390    323.757965
   10757           0     -1630.279785  -1100.000000  -44513.25390    273.863586
   10758           0     -1992.564209  -1100.000000  -44513.25390    213.074158
   10759           0     -2354.849121  -1100.000000  -44513.25390    144.884460
   10760           0     -2717.133301  -1099.999878  -44513.25000     88.128113
   10761           0      2717.133057  -1100.000122  -44137.35156     65.156532
   10762           0      2354.848633  -1100.000000  -44137.34765    144.507675
   10763           0      1992.564331  -1100.000000  -44137.34765    217.469467
   10764           0      1630.279785  -1100.000000  -44137.34765    278.804352
   10765           0      1267.995483  -1100.000000  -44137.34765    327.829834
   10766           0       905.711060  -1100.000000  -44137.34765    364.389374
   10767           0       543.426575  -1100.000000  -44137.34765    388.452454
   10768           0       181.142136  -1100.000000  -44137.34765    400.028290
   10769           0      -181.142288  -1100.000000  -44137.34765    399.144623
   10770           0      -543.426758  -1100.000000  -44137.34765    385.847290
   10771           0      -905.711182  -1100.000000  -44137.34765    360.218048
   10772           0     -1267.995605  -1100.000000  -44137.34765    322.419098
   10773           0     -1630.279785  -1100.000000  -44137.34765    272.828339
   10774           0     -1992.564209  -1100.000000  -44137.34765    212.477310
   10775           0     -2354.849121  -1100.000000  -44137.34765    145.016968
   10776           0     -2717.133301  -1099.999878  -44137.34765     89.723854
   10777           0      2717.133057  -1100.000122  -43761.44531     65.734062
   10778           0      2354.848633  -1100.000000  -43761.44140    144.029160
   10779           0      1992.564331  -1100.000000  -43761.44140    216.485794
   10780           0      1630.279785  -1100.000000  -43761.44140    277.459412
   10781           0      1267.995483  -1100.000000  -43761.44140    326.203400
   10782           0       905.711060  -1100.000000  -43761.44140    362.552643
   10783           0       543.426575  -1100.000000  -43761.44531    386.476410
   10784           0       181.142136  -1100.000000  -43761.44531    397.986755
   10785           0      -181.142288  -1100.000000  -43761.44531    397.114136
   10786           0      -543.426758  -1100.000000  -43761.44531    383.905609
   10787           0      -905.711182  -1100.000000  -43761.44531    358.446167
   10788           0     -1267.995605  -1100.000000  -43761.44531    320.901703
   10789           0     -1630.279785  -1100.000000  -43761.44531    271.666718
   10790           0     -1992.564209  -1100.000000  -43761.44531    211.818512
   10791           0     -2354.849121  -1100.000000  -43761.44531    145.184464
   10792           0     -2717.133301  -1099.999878  -43761.44531     91.448982
   10793           0      2717.133057  -1100.000122  -43385.54296     66.486549
   10794           0      2354.848633  -1100.000000  -43385.54296    143.533218
   10795           0      1992.564331  -1100.000000  -43385.54687    215.391129
   10796           0      1630.279785  -1100.000000  -43385.54687    275.934540
   10797           0      1267.995483  -1100.000000  -43385.54687    324.345398
   10798           0       905.711060  -1100.000000  -43385.54687    360.445923
   10799           0       543.426575  -1100.000000  -43385.54687    384.205933
   10800           0       181.142136  -1100.000000  -43385.54687    395.640533
   10801           0      -181.142288  -1100.000000  -43385.54687    394.782654
   10802           0      -543.426758  -1100.000000  -43385.54687    381.682678
   10803           0      -905.711182  -1100.000000  -43385.54687    356.424286
   10804           0     -1267.995605  -1100.000000  -43385.54687    319.182953
   10805           0     -1630.279785  -1100.000000  -43385.54687    270.363800
   10806           0     -1992.564209  -1100.000000  -43385.54687    211.099869
   10807           0     -2354.849121  -1100.000000  -43385.55078    145.388809
   10808           0     -2717.133301  -1099.999878  -43385.54687     93.307121
   10809           0      2717.133057  -1100.000122  -43009.64453     67.468582
   10810           0      2354.848633  -1100.000000  -43009.65234    143.033707
   10811           0      1992.564331  -1100.000000  -43009.65234    214.179535
   10812           0      1630.279785  -1100.000000  -43009.65234    274.209442
   10813           0      1267.995483  -1100.000000  -43009.65234    322.223785
   10814           0       905.711060  -1100.000000  -43009.65234    358.029266
   10815           0       543.426575  -1100.000000  -43009.65234    381.595825
   10816           0       181.142136  -1100.000000  -43009.65234    392.942047
   10817           0      -181.142288  -1100.000000  -43009.65234    392.104034
   10818           0      -543.426758  -1100.000000  -43009.65234    379.133667
   10819           0      -905.711182  -1100.000000  -43009.65234    354.117065
   10820           0     -1267.995605  -1100.000000  -43009.65234    317.233521
   10821           0     -1630.279785  -1100.000000  -43009.65234    268.905884
   10822           0     -1992.564209  -1100.000000  -43009.65234    210.320053
   10823           0     -2354.849121  -1100.000000  -43009.65234    145.659882
   10824           0     -2717.133301  -1099.999878  -43009.64453     95.362213
   10825           0      2717.133057  -1100.000122  -42633.74218     68.743675
   10826           0      2354.848633  -1100.000000  -42633.74218    142.557846
   10827           0      1992.564331  -1100.000000  -42633.74218    212.845871
   10828           0      1630.279785  -1100.000000  -42633.74218    272.261414
   10829           0      1267.995483  -1100.000000  -42633.74218    319.802521
   10830           0       905.711060  -1100.000000  -42633.74218    355.256805
   10831           0       543.426575  -1100.000000  -42633.74218    378.593994
   10832           0       181.142136  -1100.000000  -42633.74218    389.836395
   10833           0      -181.142288  -1100.000000  -42633.74218    389.023712
   10834           0      -543.426758  -1100.000000  -42633.74218    376.209473
   10835           0      -905.711182  -1100.000000  -42633.74218    351.482239
   10836           0     -1267.995605  -1100.000000  -42633.74218    315.024261
   10837           0     -1630.279785  -1100.000000  -42633.74218    267.276886
   10838           0     -1992.564209  -1100.000000  -42633.74218    209.484100
   10839           0     -2354.849121  -1100.000000  -42633.74218    146.024460
   10840           0     -2717.133301  -1099.999878  -42633.74218     97.632805
   10841           0      2717.133057  -1100.000122  -42257.83203     70.389122
   10842           0      2354.848633  -1100.000000  -42257.83593    142.139282
   10843           0      1992.564331  -1100.000000  -42257.83593    211.390030
   10844           0      1630.279785  -1100.000000  -42257.83593    270.068176
   10845           0      1267.995483  -1100.000000  -42257.83593    317.042999
   10846           0       905.711060  -1100.000000  -42257.83593    352.078156
   10847           0       543.426575  -1100.000000  -42257.83593    375.142395
   10848           0       181.142136  -1100.000000  -42257.83593    386.262299
   10849           0      -181.142288  -1100.000000  -42257.83593    385.481171
   10850           0      -543.426758  -1100.000000  -42257.83593    372.854980
   10851           0      -905.711182  -1100.000000  -42257.83593    348.473175
   10852           0     -1267.995605  -1100.000000  -42257.83593    312.522430
   10853           0     -1630.279785  -1100.000000  -42257.83593    265.462067
   10854           0     -1992.564209  -1100.000000  -42257.83593    208.599915
   10855           0     -2354.849121  -1100.000000  -42257.83593    146.521255
   10856           0     -2717.133301  -1099.999878  -42257.83593    100.190468
   10857           0      2717.133057  -1100.000122  -41881.92187     72.505119
   10858           0      2354.848633  -1100.000000  -41881.91796    141.820023
   10859           0      1992.564331  -1100.000000  -41881.91796    209.817642
   10860           0      1630.279785  -1100.000000  -41881.91796    267.607330
   10861           0      1267.995483  -1100.000000  -41881.91796    313.902802
   10862           0       905.711060  -1100.000000  -41881.91796    348.436432
   10863           0       543.426575  -1100.000000  -41881.91796    371.174957
   10864           0       181.142136  -1100.000000  -41881.91796    382.149292
   10865           0      -181.142288  -1100.000000  -41881.91796    381.407227
   10866           0      -543.426758  -1100.000000  -41881.91796    369.006683
   10867           0      -905.711182  -1100.000000  -41881.91796    345.038055
   10868           0     -1267.995605  -1100.000000  -41881.91796    309.692047
   10869           0     -1630.279785  -1100.000000  -41881.91796    263.447601
   10870           0     -1992.564209  -1100.000000  -41881.91796    207.681656
   10871           0     -2354.849121  -1100.000000  -41881.91796    147.194366
   10872           0     -2717.133301  -1099.999878  -41881.92578    103.086586
   10873           0      2717.133057  -1100.000122  -41506.02343     75.200729
   10874           0      2354.848633  -1100.000000  -41506.02343    141.659653
   10875           0      1992.564331  -1100.000000  -41506.02343    208.140350
   10876           0      1630.279785  -1100.000000  -41506.02343    264.857239
   10877           0      1267.995483  -1100.000000  -41506.02343    310.335541
   10878           0       905.711060  -1100.000000  -41506.02343    344.267456
   10879           0       543.426575  -1100.000000  -41506.02343    366.615936
   10880           0       181.142136  -1100.000000  -41506.02343    377.416656
   10881           0      -181.142288  -1100.000000  -41506.02343    376.722107
   10882           0      -543.426758  -1100.000000  -41506.02343    364.592285
   10883           0      -905.711182  -1100.000000  -41506.02343    341.118195
   10884           0     -1267.995605  -1100.000000  -41506.02343    306.494568
   10885           0     -1630.279785  -1100.000000  -41506.02343    261.221161
   10886           0     -1992.564209  -1100.000000  -41506.02343    206.750687
   10887           0     -2354.849121  -1100.000000  -41506.02343    148.104782
   10888           0     -2717.133301  -1099.999878  -41506.02343    106.407127
   10889           0      2717.133057  -1100.000122  -41130.12500     78.596611
   10890           0      2354.848633  -1100.000000  -41130.13281    141.738129
   10891           0      1992.564331  -1100.000000  -41130.13281    206.380142
   10892           0      1630.279785  -1100.000000  -41130.13281    261.799652
   10893           0      1267.995483  -1100.000000  -41130.13281    306.292786
   10894           0       905.711060  -1100.000000  -41130.13281    339.500977
   10895           0       543.426575  -1100.000000  -41130.13281    361.381042
   10896           0       181.142136  -1100.000000  -41130.13281    371.973633
   10897           0      -181.142288  -1100.000000  -41130.13281    371.336212
   10898           0      -543.426758  -1100.000000  -41130.13281    359.531036
   10899           0      -905.711182  -1100.000000  -41130.13281    336.649261
   10900           0     -1267.995605  -1100.000000  -41130.13281    302.889465
   10901           0     -1630.279785  -1100.000000  -41130.13281    258.774475
   10902           0     -1992.564209  -1100.000000  -41130.13281    205.838501
   10903           0     -2354.849121  -1100.000000  -41130.13281    149.329102
   10904           0     -2717.133301  -1099.999878  -41130.12500    110.236336
   10905           0      2717.133057  -1100.000122  -40754.21875     82.820168
   10906           0      2354.848633  -1100.000000  -40754.22656    142.156342
   10907           0      1992.564331  -1100.000000  -40754.22656    204.573456
   10908           0      1630.279785  -1100.000000  -40754.22656    258.421417
   10909           0      1267.995483  -1100.000000  -40754.22656    301.724701
   10910           0       905.711060  -1100.000000  -40754.22656    334.060455
   10911           0       543.426575  -1100.000000  -40754.22656    355.376465
   10912           0       181.142136  -1100.000000  -40754.22656    365.718231
   10913           0      -181.142288  -1100.000000  -40754.22656    365.148865
   10914           0      -543.426758  -1100.000000  -40754.22656    353.732849
   10915           0      -905.711182  -1100.000000  -40754.22656    331.560944
   10916           0     -1267.995605  -1100.000000  -40754.22656    298.835663
   10917           0     -1630.279785  -1100.000000  -40754.22656    256.104401
   10918           0     -1992.564209  -1100.000000  -40754.22656    204.989578
   10919           0     -2354.849121  -1100.000000  -40754.22656    150.958603
   10920           0     -2717.133301  -1099.999878  -40754.21875    114.676903
   10921           0      2717.133057  -1100.000122  -40378.31640     87.998871
   10922           0      2354.848633  -1100.000000  -40378.31640    143.039078
   10923           0      1992.564331  -1100.000000  -40378.31640    202.773941
   10924           0      1630.279785  -1100.000000  -40378.31640    254.717712
   10925           0      1267.995483  -1100.000000  -40378.31640    296.581512
   10926           0       905.711060  -1100.000000  -40378.31640    327.863403
   10927           0       543.426575  -1100.000000  -40378.31640    348.498352
   10928           0       181.142136  -1100.000000  -40378.31640    358.536652
   10929           0      -181.142288  -1100.000000  -40378.31640    358.047607
   10930           0      -543.426758  -1100.000000  -40378.31640    347.097809
   10931           0      -905.711182  -1100.000000  -40378.31640    325.777344
   10932           0     -1267.995605  -1100.000000  -40378.31640    294.291931
   10933           0     -1630.279785  -1100.000000  -40378.31640    253.215530
   10934           0     -1992.564209  -1100.000000  -40378.31640    204.262924
   10935           0     -2354.849121  -1100.000000  -40378.31640    153.101913
   10936           0     -2717.133301  -1099.999878  -40378.31640    119.836578
   10937           0      2717.133057  -1100.000122  -40002.40625     94.252396
   10938           0      2354.848633  -1100.000000  -40002.41015    144.533646
   10939           0      1992.564331  -1100.000000  -40002.41015    201.056213
   10940           0      1630.279785  -1100.000000  -40002.41015    250.694733
   10941           0      1267.995483  -1100.000000  -40002.41015    290.815674
   10942           0       905.711060  -1100.000000  -40002.41015    320.822266
   10943           0       543.426575  -1100.000000  -40002.41015    340.632629
   10944           0       181.142136  -1100.000000  -40002.41015    350.302124
   10945           0      -181.142288  -1100.000000  -40002.41015    349.906738
   10946           0      -543.426758  -1100.000000  -40002.41015    339.515442
   10947           0      -905.711182  -1100.000000  -40002.41015    319.216553
   10948           0     -1267.995605  -1100.000000  -40002.41015    289.218414
   10949           0     -1630.279785  -1100.000000  -40002.41015    250.121765
   10950           0     -1992.564209  -1100.000000  -40002.41015    203.733749
   10951           0     -2354.849121  -1100.000000  -40002.41015    155.880966
   10952           0     -2717.133301  -1099.999878  -40002.40625    125.828888
   10953           0      2717.133057  -1100.000122  -39626.50390    101.681305
   10954           0      2354.848633  -1100.000000  -39626.50000    146.804749
   10955           0      1992.564331  -1100.000000  -39626.50000    199.517868
   10956           0      1630.279785  -1100.000000  -39626.50000    246.373352
   10957           0      1267.995483  -1100.000000  -39626.50000    284.383667
   10958           0       905.711060  -1100.000000  -39626.50000    312.844727
   10959           0       543.426575  -1100.000000  -39626.50000    331.654572
   10960           0       181.142136  -1100.000000  -39626.50000    340.873779
   10961           0      -181.142288  -1100.000000  -39626.50000    340.586548
   10962           0      -543.426758  -1100.000000  -39626.50000    330.863800
   10963           0      -905.711182  -1100.000000  -39626.50000    311.791199
   10964           0     -1267.995605  -1100.000000  -39626.50000    283.577240
   10965           0     -1630.279785  -1100.000000  -39626.50000    246.847565
   10966           0     -1992.564209  -1100.000000  -39626.50000    203.492783
   10967           0     -2354.849121  -1100.000000  -39626.50000    159.425583
   10968           0     -2717.133301  -1099.999878  -39626.50390    132.761246
   10969           0      2717.133057  -1100.000122  -39250.59765    110.357048
   10970           0      2354.848633  -1100.000000  -39250.59375    150.021484
   10971           0      1992.564331  -1100.000000  -39250.59375    198.278900
   10972           0      1630.279785  -1100.000000  -39250.59375    241.790726
   10973           0      1267.995483  -1100.000000  -39250.59375    277.248047
   10974           0       905.711060  -1100.000000  -39250.59375    303.834503
   10975           0       543.426575  -1100.000000  -39250.59375    321.427399
   10976           0       181.142136  -1100.000000  -39250.59375    330.094940
   10977           0      -181.142288  -1100.000000  -39250.59375    329.930603
   10978           0      -543.426758  -1100.000000  -39250.59375    321.007874
   10979           0      -905.711182  -1100.000000  -39250.59375    303.406891
   10980           0     -1267.995605  -1100.000000  -39250.59375    277.332520
   10981           0     -1630.279785  -1100.000000  -39250.59375    243.427216
   10982           0     -1992.564209  -1100.000000  -39250.59375    203.641724
   10983           0     -2354.849121  -1100.000000  -39250.59375    163.861343
   10984           0     -2717.133301  -1099.999878  -39250.59765    140.726059
   10985           0      2717.133057  -1100.000122  -38874.69921    120.305481
   10986           0      2354.848633  -1100.000000  -38874.70312    154.337509
   10987           0      1992.564331  -1100.000000  -38874.70312    197.474396
   10988           0      1630.279785  -1100.000000  -38874.70312    237.000854
   10989           0      1267.995483  -1100.000000  -38874.70312    269.378052
   10990           0       905.711060  -1100.000000  -38874.70312    293.690674
   10991           0       543.426575  -1100.000000  -38874.70312    309.800964
   10992           0       181.142136  -1100.000000  -38874.70312    317.789490
   10993           0      -181.142288  -1100.000000  -38874.70312    317.762756
   10994           0      -543.426758  -1100.000000  -38874.70312    309.795990
   10995           0      -905.711182  -1100.000000  -38874.70312    293.960388
   10996           0     -1267.995605  -1100.000000  -38874.70312    270.447815
   10997           0     -1630.279785  -1100.000000  -38874.70312    239.900681
   10998           0     -1992.564209  -1100.000000  -38874.70312    204.282974
   10999           0     -2354.849121  -1100.000000  -38874.70312    169.291855
   11000           0     -2717.133301  -1099.999878  -38874.70312    149.782578
   11001           0      2717.133057  -1100.000122  -38498.80078    131.494385
   11002           0      2354.848633  -1100.000000  -38498.80468    159.859665
   11003           0      1992.564331  -1100.000000  -38498.80468    197.239502
   11004           0      1630.279785  -1100.000000  -38498.80468    232.068893
   11005           0      1267.995483  -1100.000000  -38498.80468    260.748108
   11006           0       905.711060  -1100.000000  -38498.80468    282.305786
   11007           0       543.426575  -1100.000000  -38498.80468    296.607086
   11008           0       181.142136  -1100.000000  -38498.80859    303.757019
   11009           0      -181.142288  -1100.000000  -38498.80859    303.880280
   11010           0      -543.426758  -1100.000000  -38498.80859    297.054443
   11011           0      -905.711182  -1100.000000  -38498.80859    283.333527
   11012           0     -1267.995605  -1100.000000  -38498.80859    262.880096
   11013           0     -1630.279785  -1100.000000  -38498.80859    236.302948
   11014           0     -1992.564209  -1100.000000  -38498.80859    205.499557
   11015           0     -2354.849121  -1100.000000  -38498.80859    175.773209
   11016           0     -2717.133301  -1099.999878  -38498.80468    159.938477
   11017           0      2717.133057  -1100.000122  -38122.89453    143.803925
   11018           0      2354.848633  -1100.000000  -38122.89453    166.612320
   11019           0      1992.564331  -1100.000000  -38122.89843    197.679932
   11020           0      1630.279785  -1100.000000  -38122.89843    227.058350
   11021           0      1267.995483  -1100.000000  -38122.89843    251.331985
   11022           0       905.711060  -1100.000000  -38122.89843    269.560089
   11023           0       543.426575  -1100.000000  -38122.89843    281.653290
   11024           0       181.142136  -1100.000000  -38122.89843    287.762848
   11025           0      -181.142288  -1100.000000  -38122.89843    288.044403
   11026           0      -543.426758  -1100.000000  -38122.89843    282.576477
   11027           0      -905.711182  -1100.000000  -38122.89843    271.382690
   11028           0     -1267.995605  -1100.000000  -38122.90234    254.566223
   11029           0     -1630.279785  -1100.000000  -38122.90234    232.643021
   11030           0     -1992.564209  -1100.000000  -38122.90234    207.324997
   11031           0     -2354.849121  -1100.000000  -38122.90234    183.280365
   11032           0     -2717.133301  -1099.999878  -38122.89843    171.121582
   11033           0      2717.133057  -1100.000122  -37746.98828    157.010574
   11034           0      2354.848633  -1100.000000  -37746.98828    174.488815
   11035           0      1992.564331  -1100.000000  -37746.98828    198.827850
   11036           0      1630.279785  -1100.000000  -37746.98828    222.006226
   11037           0      1267.995483  -1100.000000  -37746.98828    241.088486
   11038           0       905.711060  -1100.000000  -37746.98828    255.313004
   11039           0       543.426575  -1100.000000  -37746.98828    264.709534
   11040           0       181.142136  -1100.000000  -37746.98828    269.523865
   11041           0      -181.142288  -1100.000000  -37746.98828    269.962341
   11042           0      -543.426758  -1100.000000  -37746.98828    266.104767
   11043           0      -905.711182  -1100.000000  -37746.98828    257.920227
   11044           0     -1267.995605  -1100.000000  -37746.99218    245.397934
   11045           0     -1630.279785  -1100.000000  -37746.99218    228.869888
   11046           0     -1992.564209  -1100.000000  -37746.99218    209.694016
   11047           0     -2354.849121  -1100.000000  -37746.99218    191.665695
   11048           0     -2717.133301  -1099.999878  -37746.98828    183.149612
   11049           0      2717.133057  -1100.000122  -37371.08593    170.726242
   11050           0      2354.848633  -1100.000000  -37371.08203    183.208420
   11051           0      1992.564331  -1100.000000  -37371.08203    200.583420
   11052           0      1630.279785  -1100.000000  -37371.08203    216.879028
   11053           0      1267.995483  -1100.000000  -37371.08203    229.942673
   11054           0       905.711060  -1100.000000  -37371.08203    239.384964
   11055           0       543.426575  -1100.000000  -37371.08203    245.493027
   11056           0       181.142136  -1100.000000  -37371.08203    248.684265
   11057           0      -181.142288  -1100.000000  -37371.08203    249.261398
   11058           0      -543.426758  -1100.000000  -37371.08203    247.304123
   11059           0      -905.711182  -1100.000000  -37371.08203    242.681351
   11060           0     -1267.995605  -1100.000000  -37371.08203    235.184158
   11061           0     -1630.279785  -1100.000000  -37371.08203    224.813934
   11062           0     -1992.564209  -1100.000000  -37371.08203    212.386917
   11063           0     -2354.849121  -1100.000000  -37371.08203    200.607758
   11064           0     -2717.133301  -1099.999878  -37371.08203    195.682556
   11065           0      2717.133057  -1100.000122  -36995.18359    184.385193
   11066           0      2354.848633  -1100.000000  -36995.17968    192.252533
   11067           0      1992.564331  -1100.000000  -36995.17968    202.638962
   11068           0      1630.279785  -1100.000000  -36995.17968    211.523972
   11069           0      1267.995483  -1100.000000  -36995.17968    217.748718
   11070           0       905.711060  -1100.000000  -36995.17968    221.547958
   11071           0       543.426575  -1100.000000  -36995.17968    223.644760
   11072           0       181.142136  -1100.000000  -36995.17968    224.787384
   11073           0      -181.142288  -1100.000000  -36995.17968    225.451187
   11074           0      -543.426758  -1100.000000  -36995.17968    225.718155
   11075           0      -905.711182  -1100.000000  -36995.17968    225.282089
   11076           0     -1267.995605  -1100.000000  -36995.17968    223.582016
   11077           0     -1630.279785  -1100.000000  -36995.17968    220.117325
   11078           0     -1992.564209  -1100.000000  -36995.17968    214.935013
   11079           0     -2354.849121  -1100.000000  -36995.17968    209.546906
   11080           0     -2717.133301  -1099.999878  -36995.18359    208.180389
   11081           0      2717.133057  -1100.000122  -36619.27734    197.113129
   11082           0      2354.848633  -1100.000000  -36619.28125    200.820557
   11083           0      1992.564331  -1100.000000  -36619.28125    204.417847
   11084           0      1630.279785  -1100.000000  -36619.28125    205.591522
   11085           0      1267.995483  -1100.000000  -36619.28125    204.284851
   11086           0       905.711060  -1100.000000  -36619.28125    201.517609
   11087           0       543.426575  -1100.000000  -36619.28125    198.734863
   11088           0       181.142136  -1100.000000  -36619.28125    197.247055
   11089           0      -181.142288  -1100.000000  -36619.28125    197.879089
   11090           0      -543.426758  -1100.000000  -36619.28125    200.725250
   11091           0      -905.711182  -1100.000000  -36619.28125    205.150162
   11092           0     -1267.995605  -1100.000000  -36619.28125    210.032196
   11093           0     -1630.279785  -1100.000000  -36619.28125    214.109665
   11094           0     -1992.564209  -1100.000000  -36619.28125    216.551193
   11095           0     -2354.849121  -1100.000000  -36619.28125    217.607544
   11096           0     -2717.133301  -1099.999878  -36619.27734    219.806396
   11097           0      2717.133057  -1100.000122  -36243.37500    207.748749
   11098           0      2354.848633  -1100.000000  -36243.37500    207.741547
   11099           0      1992.564331  -1100.000000  -36243.37500    204.988724
   11100           0      1630.279785  -1100.000000  -36243.37500    198.539825
   11101           0      1267.995483  -1100.000000  -36243.37500    189.255463
   11102           0       905.711060  -1100.000000  -36243.37500    179.074860
   11103           0       543.426575  -1100.000000  -36243.37500    170.346222
   11104           0       181.142136  -1100.000000  -36243.37500    165.386169
   11105           0      -181.142288  -1100.000000  -36243.37500    165.720474
   11106           0      -543.426758  -1100.000000  -36243.37500    171.504089
   11107           0      -905.711182  -1100.000000  -36243.37500    181.500366
   11108           0     -1267.995605  -1100.000000  -36243.37500    193.632309
   11109           0     -1630.279785  -1100.000000  -36243.37500    205.728867
   11110           0     -1992.564209  -1100.000000  -36243.37500    215.941360
   11111           0     -2354.849121  -1100.000000  -36243.37500    223.484100
   11112           0     -2717.133301  -1099.999878  -36243.37500    229.386230
   11113           0      2717.133057  -1100.000122  -35867.46875    214.544174
   11114           0      2354.848633  -1100.000000  -35867.46093    211.440643
   11115           0      1992.564331  -1100.000000  -35867.46093    203.125854
   11116           0      1630.279785  -1100.000000  -35867.46093    189.638916
   11117           0      1267.995483  -1100.000000  -35867.46093    172.605423
   11118           0       905.711060  -1100.000000  -35867.46093    154.471619
   11119           0       543.426575  -1100.000000  -35867.46093    138.599274
   11120           0       181.142136  -1100.000000  -35867.46093    128.796753
   11121           0      -181.142288  -1100.000000  -35867.46093    128.182281
   11122           0      -543.426758  -1100.000000  -35867.46093    137.209290
   11123           0      -905.711182  -1100.000000  -35867.46093    153.396484
   11124           0     -1267.995605  -1100.000000  -35867.46093    173.185730
   11125           0     -1630.279785  -1100.000000  -35867.46093    193.298431
   11126           0     -1992.564209  -1100.000000  -35867.46093    211.279846
   11127           0     -2354.849121  -1100.000000  -35867.46093    225.285492
   11128           0     -2717.133301  -1099.999878  -35867.46875    235.180801
   11129           0      2717.133057  -1100.000122  -35491.56250    215.351242
   11130           0      2354.848633  -1100.000000  -35491.55859    209.862808
   11131           0      1992.564331  -1100.000000  -35491.55468    197.314957
   11132           0      1630.279785  -1100.000000  -35491.55468    178.557022
   11133           0      1267.995483  -1100.000000  -35491.55468    155.290131
   11134           0       905.711060  -1100.000000  -35491.55468    130.137634
   11135           0       543.426575  -1100.000000  -35491.55468    106.466591
   11136           0       181.142136  -1100.000000  -35491.55468     89.587440
   11137           0      -181.142288  -1100.000000  -35491.55468     86.142380
   11138           0      -543.426758  -1100.000000  -35491.55468     98.204666
   11139           0      -905.711182  -1100.000000  -35491.55468    120.618057
   11140           0     -1267.995605  -1100.000000  -35491.55468    147.390182
   11141           0     -1630.279785  -1100.000000  -35491.55468    174.698593
   11142           0     -1992.564209  -1100.000000  -35491.55468    199.688354
   11143           0     -2354.849121  -1100.000000  -35491.55078    220.330475
   11144           0     -2717.133301  -1099.999878  -35491.56250    234.883392
   11145           0      2717.133057  -1100.000122  -35115.65625    206.824722
   11146           0      2354.848633  -1100.000000  -35115.64843    200.661865
   11147           0      1992.564331  -1100.000000  -35115.64843    186.720718
   11148           0      1630.279785  -1100.000000  -35115.64843    166.430618
   11149           0      1267.995483  -1100.000000  -35115.64843    142.139938
   11150           0       905.711060  -1100.000000  -35115.64843    115.629364
   11151           0       543.426575  -1100.000000  -35115.64843     89.109016
   11152           0       181.142136  -1100.000000  -35115.64843     66.477882
   11153           0      -181.142288  -1100.000000  -35115.64843     55.919930
   11154           0      -543.426758  -1100.000000  -35115.64843     65.122940
   11155           0      -905.711182  -1100.000000  -35115.64843     88.340363
   11156           0     -1267.995605  -1100.000000  -35115.64843    117.114845
   11157           0     -1630.279785  -1100.000000  -35115.64843    147.476761
   11158           0     -1992.564209  -1100.000000  -35115.64843    177.668182
   11159           0     -2354.849121  -1100.000000  -35115.64843    204.474091
   11160           0     -2717.133301  -1099.999878  -35115.65625    225.149216
   11161           0      2717.133057  -1100.000122  -34739.75781    185.651260
   11162           0      2354.848633  -1100.000000  -34739.75390    182.048859
   11163           0      1992.564331  -1100.000000  -34739.75390    172.688995
   11164           0      1630.279785  -1100.000000  -34739.75390    160.302536
   11165           0      1267.995483  -1100.000000  -34739.75390    146.590652
   11166           0       905.711060  -1100.000000  -34739.75390    132.402283
   11167           0       543.426575  -1100.000000  -34739.75390    118.314133
   11168           0       181.142136  -1100.000000  -34739.75390    104.913147
   11169           0      -181.142288  -1100.000000  -34739.75390     93.402000
   11170           0      -543.426758  -1100.000000  -34739.75390     86.035614
   11171           0      -905.711182  -1100.000000  -34739.75390     85.937065
   11172           0     -1267.995605  -1100.000000  -34739.75390     95.322220
   11173           0     -1630.279785  -1100.000000  -34739.75390    113.718620
   11174           0     -1992.564209  -1100.000000  -34739.75390    139.598618
   11175           0     -2354.849121  -1100.000000  -34739.75390    172.133102
   11176           0     -2717.133301  -1099.999878  -34739.75781    201.128159
   11177           0      2717.133057  -1100.000122  -34363.85937    146.162170
   11178           0      2354.848633  -1100.000000  -34363.86328    157.058640
   11179           0      1992.564331  -1100.000000  -34363.86328    167.238190
   11180           0      1630.279785  -1100.000000  -34363.86328    178.446609
   11181           0      1267.995483  -1100.000000  -34363.86328    188.318985
   11182           0       905.711060  -1100.000000  -34363.86328    194.994522
   11183           0       543.426575  -1100.000000  -34363.86328    196.973709
   11184           0       181.142136  -1100.000000  -34363.86328    193.331039
   11185           0      -181.142288  -1100.000000  -34363.86328    183.624954
   11186           0      -543.426758  -1100.000000  -34363.86328    167.924194
   11187           0      -905.711182  -1100.000000  -34363.86328    146.964493
   11188           0     -1267.995605  -1100.000000  -34363.86328    122.743011
   11189           0     -1630.279785  -1100.000000  -34363.86328    100.196342
   11190           0     -1992.564209  -1100.000000  -34363.86328     90.421768
   11191           0     -2354.849121  -1100.000000  -34363.86328    109.097626
   11192           0     -2717.133301  -1099.999878  -34363.85937    159.064758
   11193           0      2717.133057  -1100.000122  -33987.95312    103.576035
   11194           0      2354.848633  -1100.000000  -33987.95312    152.316406
   11195           0      1992.564331  -1100.000000  -33987.95312    201.279099
   11196           0      1630.279785  -1100.000000  -33987.95312    243.805206
   11197           0      1267.995483  -1100.000000  -33987.95312    277.489258
   11198           0       905.711060  -1100.000000  -33987.95312    301.237915
   11199           0       543.426575  -1100.000000  -33987.95312    314.402313
   11200           0       181.142136  -1100.000000  -33987.95312    316.647705
   11201           0      -181.142288  -1100.000000  -33987.95312    307.782135
   11202           0      -543.426758  -1100.000000  -33987.95312    287.732880
   11203           0      -905.711182  -1100.000000  -33987.95312    256.540314
   11204           0     -1267.995605  -1100.000000  -33987.95312    214.301926
   11205           0     -1630.279785  -1100.000000  -33987.95312    161.347183
   11206           0     -1992.564209  -1100.000000  -33987.95312     97.959663
   11207           0     -2354.849121  -1100.000000  -33987.95312     29.253883
   11208           0     -2717.133301  -1099.999878  -33987.95312     78.788193
   11209           0      2717.133057  -1100.000122  -33612.22265    102.890083
   11210           0      2354.848633  -1100.000000  -33612.22265    151.852066
   11211           0      1992.564331  -1100.000000  -33612.22265    200.960052
   11212           0      1630.279785  -1100.000000  -33612.22265    243.591934
   11213           0      1267.995483  -1100.000000  -33612.22265    277.358002
   11214           0       905.711060  -1100.000000  -33612.22265    301.175659
   11215           0       543.426575  -1100.000000  -33612.22265    314.400940
   11216           0       181.142136  -1100.000000  -33612.22265    316.702820
   11217           0      -181.142288  -1100.000000  -33612.22265    307.891968
   11218           0      -543.426758  -1100.000000  -33612.22265    287.898773
   11219           0      -905.711182  -1100.000000  -33612.22265    256.767609
   11220           0     -1267.995605  -1100.000000  -33612.22265    214.604431
   11221           0     -1630.279907  -1100.000000  -33612.22265    161.755997
   11222           0     -1992.564331  -1100.000000  -33612.22265     98.587006
   11223           0     -2354.849121  -1100.000000  -33612.22265     30.795284
   11224           0     -2717.133301  -1099.999878  -33612.22265     79.186028
   11225           0      2717.133057  -1100.000122  -33236.66796    145.036545
   11226           0      2354.848633  -1100.000000  -33236.66796    155.860184
   11227           0      1992.564331  -1100.000000  -33236.66796    166.113358
   11228           0      1630.279785  -1100.000000  -33236.66796    177.485672
   11229           0      1267.995483  -1100.000000  -33236.66796    187.572006
   11230           0       905.711060  -1100.000000  -33236.66796    194.480179
   11231           0       543.426575  -1100.000000  -33236.66796    196.702667
   11232           0       181.142136  -1100.000000  -33236.66796    193.313812
   11233           0      -181.142288  -1100.000000  -33236.66796    183.881897
   11234           0      -543.426758  -1100.000000  -33236.66796    168.492142
   11235           0      -905.711182  -1100.000000  -33236.66796    147.910553
   11236           0     -1267.995605  -1100.000000  -33236.66796    124.173340
   11237           0     -1630.280029  -1100.000000  -33236.66796    102.228874
   11238           0     -1992.564453  -1100.000000  -33236.66796     92.871964
   11239           0     -2354.848633  -1100.000000  -33236.66796    111.260529
   11240           0     -2717.133301  -1099.999878  -33236.66796    160.766037
   11241           0      2717.133057  -1100.000122  -32861.10937    184.471649
   11242           0      2354.848633  -1100.000000  -32861.10937    180.609634
   11243           0      1992.564331  -1100.000000  -32861.10937    171.085556
   11244           0      1630.279785  -1100.000000  -32861.10937    158.654053
   11245           0      1267.995483  -1100.000000  -32861.10937    145.028961
   11246           0       905.711060  -1100.000000  -32861.10937    131.079803
   11247           0       543.426575  -1100.000000  -32861.10937    117.398094
   11248           0       181.142136  -1100.000000  -32861.10937    104.592766
   11249           0      -181.142288  -1100.000000  -32861.10937     93.873360
   11250           0      -543.426758  -1100.000000  -32861.10937     87.430923
   11251           0      -905.711182  -1100.000000  -32861.10937     88.153610
   11252           0     -1267.995605  -1100.000000  -32861.10937     97.979111
   11253           0     -1630.280029  -1100.000000  -32861.10937    116.407944
   11254           0     -1992.564453  -1100.000000  -32861.10937    142.087433
   11255           0     -2354.848633  -1100.000000  -32861.10937    174.353546
   11256           0     -2717.133301  -1099.999878  -32861.11328    203.092346
   11257           0      2717.133057  -1100.000122  -32485.55664    205.663406
   11258           0      2354.848633  -1100.000000  -32485.55664    199.173080
   11259           0      1992.564331  -1100.000000  -32485.55664    184.964417
   11260           0      1630.279785  -1100.000000  -32485.55664    164.481461
   11261           0      1267.995483  -1100.000000  -32485.55664    140.094086
   11262           0       905.711060  -1100.000000  -32485.55664    113.621925
   11263           0       543.426575  -1100.000000  -32485.55664     87.383659
   11264           0       181.142136  -1100.000000  -32485.55664     65.545738
   11265           0      -181.142288  -1100.000000  -32485.55664     56.561954
   11266           0      -543.426758  -1100.000000  -32485.55664     67.158875
   11267           0      -905.711182  -1100.000000  -32485.55664     90.893631
   11268           0     -1267.995605  -1100.000000  -32485.55664    119.762032
   11269           0     -1630.280029  -1100.000000  -32485.55664    150.063843
   11270           0     -1992.564453  -1100.000000  -32485.55664    180.130249
   11271           0     -2354.848633  -1100.000000  -32485.55664    206.775482
   11272           0     -2717.133301  -1099.999878  -32485.55664    227.250595
   11273           0      2717.133057  -1100.000122  -32110.00000    214.241653
   11274           0      2354.848633  -1100.000000  -32110.00000    208.391174
   11275           0      1992.564331  -1100.000000  -32110.00000    195.548035
   11276           0      1630.279785  -1100.000000  -32110.00000    176.572891
   11277           0      1267.995483  -1100.000000  -32110.00000    153.192886
   11278           0       905.711060  -1100.000000  -32110.00000    128.087936
   11279           0       543.426575  -1100.000000  -32110.00000    104.745789
   11280           0       181.142136  -1100.000000  -32110.00000     88.674026
   11281           0      -181.142288  -1100.000000  -32110.00000     86.478767
   11282           0      -543.426758  -1100.000000  -32110.00000     99.645782
   11283           0      -905.711182  -1100.000000  -32110.00000    122.691269
   11284           0     -1267.995605  -1100.000000  -32110.00000    149.756775
   11285           0     -1630.280029  -1100.000000  -32110.00000    177.171494
   11286           0     -1992.564453  -1100.000000  -32110.00000    202.156891
   11287           0     -2354.848633  -1100.000000  -32110.00000    222.715591
   11288           0     -2717.133301  -1099.999878  -32110.00000    237.111710
   11289           0      2717.133057  -1100.000122  -31734.44531    213.500748
   11290           0      2354.848633  -1100.000000  -31734.44531    210.020416
   11291           0      1992.564331  -1100.000000  -31734.44531    201.412735
   11292           0      1630.279785  -1100.000000  -31734.44531    187.735962
   11293           0      1267.995483  -1100.000000  -31734.44531    170.647156
   11294           0       905.711060  -1100.000000  -31734.44531    152.647369
   11295           0       543.426575  -1100.000000  -31734.44531    137.173615
   11296           0       181.142136  -1100.000000  -31734.44531    128.077545
   11297           0      -181.142288  -1100.000000  -31734.44531    128.375427
   11298           0      -543.426758  -1100.000000  -31734.44531    138.274811
   11299           0      -905.711182  -1100.000000  -31734.44531    155.118164
   11300           0     -1267.995605  -1100.000000  -31734.44531    175.329330
   11301           0     -1630.280029  -1100.000000  -31734.44531    195.678925
   11302           0     -1992.564453  -1100.000000  -31734.44531    213.759903
   11303           0     -2354.848633  -1100.000000  -31734.44531    227.754150
   11304           0     -2717.133301  -1099.999878  -31734.44531    237.531784
   11305           0      2717.133057  -1100.000122  -31358.88867    206.784210
   11306           0      2354.848633  -1100.000000  -31358.88867    206.394608
   11307           0      1992.564331  -1100.000000  -31358.88867    203.368393
   11308           0      1630.279785  -1100.000000  -31358.88867    196.772995
   11309           0      1267.995483  -1100.000000  -31358.88867    187.494110
   11310           0       905.711060  -1100.000000  -31358.88867    177.502686
   11311           0       543.426575  -1100.000000  -31358.88867    169.172241
   11312           0       181.142136  -1100.000000  -31358.88867    164.807983
   11313           0      -181.142288  -1100.000000  -31358.88867    165.860809
   11314           0      -543.426758  -1100.000000  -31358.88867    172.366562
   11315           0      -905.711182  -1100.000000  -31358.88867    182.986542
   11316           0     -1267.995605  -1100.000000  -31358.88867    195.596191
   11317           0     -1630.280029  -1100.000000  -31358.88867    208.021393
   11318           0     -1992.564453  -1100.000000  -31358.88867    218.425629
   11319           0     -2354.848633  -1100.000000  -31358.88867    226.031372
   11320           0     -2717.133301  -1099.999878  -31358.88867    231.861023
   11321           0      2717.133057  -1100.000122  -30983.33398    196.235977
   11322           0      2354.848633  -1100.000000  -30983.33398    199.566513
   11323           0      1992.564331  -1100.000000  -30983.33398    202.919159
   11324           0      1630.279785  -1100.000000  -30983.33398    203.991608
   11325           0      1267.995483  -1100.000000  -30983.33398    202.735138
   11326           0       905.711060  -1100.000000  -30983.33398    200.177704
   11327           0       543.426575  -1100.000000  -30983.33398    197.762451
   11328           0       181.142136  -1100.000000  -30983.33398    196.777374
   11329           0      -181.142288  -1100.000000  -30983.33398    197.999405
   11330           0      -543.426758  -1100.000000  -30983.33398    201.459000
   11331           0      -905.711182  -1100.000000  -30983.33398    206.459763
   11332           0     -1267.995605  -1100.000000  -30983.33398    211.837402
   11333           0     -1630.280029  -1100.000000  -30983.33398    216.306778
   11334           0     -1992.564453  -1100.000000  -30983.33398    219.024429
   11335           0     -2354.848633  -1100.000000  -30983.33398    220.225739
   11336           0     -2717.133301  -1099.999878  -30983.33398    222.405396
   11337           0      2717.133057  -1100.000122  -30607.77734    183.607178
   11338           0      2354.848633  -1100.000000  -30607.77734    191.109665
   11339           0      1992.564331  -1100.000000  -30607.77734    201.286072
   11340           0      1630.279785  -1100.000000  -30607.77734    210.109451
   11341           0      1267.995483  -1100.000000  -30607.77734    216.411453
   11342           0       905.711060  -1100.000000  -30607.77734    220.418427
   11343           0       543.426575  -1100.000000  -30607.77734    222.841888
   11344           0       181.142136  -1100.000000  -30607.77734    224.409744
   11345           0      -181.142288  -1100.000000  -30607.77734    225.567688
   11346           0      -543.426758  -1100.000000  -30607.77734    226.361725
   11347           0      -905.711182  -1100.000000  -30607.77734    226.449966
   11348           0     -1267.995605  -1100.000000  -30607.77734    225.240662
   11349           0     -1630.280029  -1100.000000  -30607.77734    222.209137
   11350           0     -1992.564453  -1100.000000  -30607.77734    217.378860
   11351           0     -2354.848633  -1100.000000  -30607.77734    212.224869
   11352           0     -2717.133301  -1099.999878  -30607.77734    210.906296
   11353           0      2717.133057  -1100.000122  -30232.22265    170.059006
   11354           0      2354.848633  -1100.000000  -30232.22265    182.197113
   11355           0      1992.564331  -1100.000000  -30232.22265    199.396835
   11356           0      1630.279785  -1100.000000  -30232.22265    215.660629
   11357           0      1267.995483  -1100.000000  -30232.22265    228.811859
   11358           0       905.711060  -1100.000000  -30232.22265    238.446167
   11359           0       543.426575  -1100.000000  -30232.22265    244.837387
   11360           0       181.142136  -1100.000000  -30232.22265    248.387985
   11361           0      -181.142288  -1100.000000  -30232.22265    249.382416
   11362           0      -543.426758  -1100.000000  -30232.22265    247.880173
   11363           0      -905.711182  -1100.000000  -30232.22265    243.730072
   11364           0     -1267.995605  -1100.000000  -30232.22265    236.705521
   11365           0     -1630.280029  -1100.000000  -30232.22265    226.791550
   11366           0     -1992.564453  -1100.000000  -30232.22265    214.782562
   11367           0     -2354.848633  -1100.000000  -30232.22265    203.333588
   11368           0     -2717.133301  -1099.999878  -30232.22265    198.535461
   11369           0      2717.133057  -1100.000122  -29856.66796    156.467819
   11370           0      2354.848633  -1100.000000  -29856.66796    173.627945
   11371           0      1992.564331  -1100.000000  -29856.66796    197.823456
   11372           0      1630.279785  -1100.000000  -29856.66796    220.988449
   11373           0      1267.995483  -1100.000000  -29856.66796    240.156815
   11374           0       905.711060  -1100.000000  -29856.66796    254.550430
   11375           0       543.426575  -1100.000000  -29856.66796    264.188110
   11376           0       181.142136  -1100.000000  -29856.66796    269.305084
   11377           0      -181.142288  -1100.000000  -29856.66796    270.096832
   11378           0      -543.426758  -1100.000000  -29856.66796    266.631989
   11379           0      -905.711182  -1100.000000  -29856.66796    258.870056
   11380           0     -1267.995605  -1100.000000  -29856.66796    246.793243
   11381           0     -1630.280029  -1100.000000  -29856.66796    230.728836
   11382           0     -1992.564453  -1100.000000  -29856.66796    212.024048
   11383           0     -2354.848633  -1100.000000  -29856.66796    194.424164
   11384           0     -2717.133301  -1099.999878  -29856.66796    186.132004
   11385           0      2717.133057  -1100.000122  -29481.10937    143.407120
   11386           0      2354.848633  -1100.000000  -29481.10937    165.922760
   11387           0      1992.564331  -1100.000000  -29481.10937    196.868546
   11388           0      1630.279785  -1100.000000  -29481.10937    226.239304
   11389           0      1267.995483  -1100.000000  -29481.10937    250.587250
   11390           0       905.711060  -1100.000000  -29481.10937    268.957275
   11391           0       543.426575  -1100.000000  -29481.10937    281.251465
   11392           0       181.142136  -1100.000000  -29481.10937    287.614044
   11393           0      -181.142288  -1100.000000  -29481.10937    288.194214
   11394           0      -543.426758  -1100.000000  -29481.10937    283.065002
   11395           0      -905.711182  -1100.000000  -29481.10937    272.247101
   11396           0     -1267.995605  -1100.000000  -29481.10937    255.845200
   11397           0     -1630.280029  -1100.000000  -29481.10937    234.382172
   11398           0     -1992.564453  -1100.000000  -29481.10937    209.576035
   11399           0     -2354.848633  -1100.000000  -29481.10937    186.058914
   11400           0     -2717.133301  -1099.999878  -29481.10937    174.235962
   11401           0      2717.133057  -1100.000122  -29105.55468    131.264374
   11402           0      2354.848633  -1100.000000  -29105.55468    159.358994
   11403           0      1992.564331  -1100.000000  -29105.55468    196.626770
   11404           0      1630.279785  -1100.000000  -29105.55468    231.443207
   11405           0      1267.995483  -1100.000000  -29105.55468    260.178802
   11406           0       905.711060  -1100.000000  -29105.55468    281.849854
   11407           0       543.426575  -1100.000000  -29105.55468    296.315002
   11408           0       181.142136  -1100.000000  -29105.55468    303.674286
   11409           0      -181.142288  -1100.000000  -29105.55468    304.048889
   11410           0      -543.426758  -1100.000000  -29105.55468    297.514282
   11411           0      -905.711182  -1100.000000  -29105.55468    284.126068
   11412           0     -1267.995605  -1100.000000  -29105.55468    264.054535
   11413           0     -1630.280029  -1100.000000  -29105.55468    237.925873
   11414           0     -1992.564453  -1100.000000  -29105.55468    207.662689
   11415           0     -2354.848633  -1100.000000  -29105.55468    178.558182
   11416           0     -2717.133301  -1099.999878  -29105.55468    163.187012
   11417           0      2717.133057  -1100.000122  -28729.99804    120.266853
   11418           0      2354.848633  -1100.000000  -28730.00000    154.038864
   11419           0      1992.564331  -1100.000000  -28730.00000    197.060425
   11420           0      1630.279785  -1100.000000  -28730.00000    236.560577
   11421           0      1267.995483  -1100.000000  -28730.00000    268.972839
   11422           0       905.711060  -1100.000000  -28730.00000    293.370728
   11423           0       543.426575  -1100.000000  -28730.00000    309.610870
   11424           0       181.142136  -1100.000000  -28730.00000    317.770386
   11425           0      -181.142288  -1100.000000  -28730.00000    317.953583
   11426           0      -543.426758  -1100.000000  -28730.00000    310.236237
   11427           0      -905.711182  -1100.000000  -28730.00000    294.693726
   11428           0     -1267.995605  -1100.000000  -28730.00000    271.530365
   11429           0     -1630.280029  -1100.000000  -28730.00000    241.414368
   11430           0     -1992.564453  -1100.000000  -28730.00000    206.353577
   11431           0     -2354.848633  -1100.000000  -28730.00000    172.070862
   11432           0     -2717.133301  -1099.999878  -28729.99804    153.166611
   11433           0      2717.133057  -1100.000122  -28354.44335    110.535088
   11434           0      2354.848633  -1100.000000  -28354.44335    149.933578
   11435           0      1992.564331  -1100.000000  -28354.44335    198.059921
   11436           0      1630.279785  -1100.000000  -28354.44335    241.526306
   11437           0      1267.995483  -1100.000000  -28354.44335    276.995728
   11438           0       905.711060  -1100.000000  -28354.44335    303.640472
   11439           0       543.426575  -1100.000000  -28354.44335    321.332367
   11440           0       181.142136  -1100.000000  -28354.44335    330.136780
   11441           0      -181.142288  -1100.000000  -28354.44335    330.146149
   11442           0      -543.426758  -1100.000000  -28354.44335    321.435699
   11443           0      -905.711182  -1100.000000  -28354.44335    304.091980
   11444           0     -1267.995605  -1100.000000  -28354.44335    278.335327
   11445           0     -1630.280029  -1100.000000  -28354.44335    244.840759
   11446           0     -1992.564453  -1100.000000  -28354.44335    205.619736
   11447           0     -2354.848633  -1100.000000  -28354.44335    166.624390
   11448           0     -2717.133301  -1099.999878  -28354.44335    144.245789
   11449           0      2717.133057  -1100.000122  -27978.88867    102.100945
   11450           0      2354.848633  -1100.000000  -27978.89062    146.930618
   11451           0      1992.564331  -1100.000000  -27978.89062    199.487030
   11452           0      1630.279785  -1100.000000  -27978.89062    246.274582
   11453           0      1267.995483  -1100.000000  -27978.89062    284.273895
   11454           0       905.711060  -1100.000000  -27978.89062    312.767975
   11455           0       543.426575  -1100.000000  -27978.89062    331.648926
   11456           0       181.142136  -1100.000000  -27978.89062    340.974823
   11457           0      -181.142288  -1100.000000  -27978.89062    340.829224
   11458           0      -543.426758  -1100.000000  -27978.89062    331.285858
   11459           0      -905.711182  -1100.000000  -27978.89062    312.438110
   11460           0     -1267.995605  -1100.000000  -27978.89062    284.512299
   11461           0     -1630.280029  -1100.000000  -27978.89062    248.171494
   11462           0     -1992.564453  -1100.000000  -27978.89062    205.381638
   11463           0     -2354.848633  -1100.000000  -27978.89062    162.164795
   11464           0     -2717.133301  -1099.999878  -27978.89062    136.416656
   11465           0      2717.133057  -1100.000122  -27603.33398     94.936378
   11466           0      2354.848633  -1100.000000  -27603.33398    144.871918
   11467           0      1992.564331  -1100.000000  -27603.33398    201.204865
   11468           0      1630.279785  -1100.000000  -27603.33398    250.751389
   11469           0      1267.995483  -1100.000000  -27603.33398    290.838745
   11470           0       905.711060  -1100.000000  -27603.33398    320.854797
   11471           0       543.426575  -1100.000000  -27603.33398    340.711151
   11472           0       181.142136  -1100.000000  -27603.33398    350.460297
   11473           0      -181.142288  -1100.000000  -27603.33398    350.178192
   11474           0      -543.426758  -1100.000000  -27603.33398    339.937042
   11475           0      -905.711182  -1100.000000  -27603.33398    319.833923
   11476           0     -1267.995605  -1100.000000  -27603.33398    290.096558
   11477           0     -1630.280029  -1100.000000  -27603.33398    251.367004
   11478           0     -1992.564453  -1100.000000  -27603.33398    205.539505
   11479           0     -2354.848633  -1100.000000  -27603.33398    158.591766
   11480           0     -2717.133301  -1099.999878  -27603.33398    129.618256
   11481           0      2717.133057  -1100.000122  -27227.77734     88.965660
   11482           0      2354.848633  -1100.000000  -27227.77734    143.584290
   11483           0      1992.564331  -1100.000000  -27227.77734    203.092545
   11484           0      1630.279785  -1100.000000  -27227.77734    254.919983
   11485           0      1267.995483  -1100.000000  -27227.77734    296.728699
   11486           0       905.711060  -1100.000000  -27227.77734    327.998505
   11487           0       543.426575  -1100.000000  -27227.77734    348.656647
   11488           0       181.142136  -1100.000000  -27227.77734    358.750519
   11489           0      -181.142288  -1100.000000  -27227.77734    358.349487
   11490           0      -543.426758  -1100.000000  -27227.77734    347.523834
   11491           0      -905.711182  -1100.000000  -27227.77734    326.372986
   11492           0     -1267.995605  -1100.000000  -27227.77734    295.123291
   11493           0     -1630.280029  -1100.000000  -27227.77734    254.392853
   11494           0     -1992.564453  -1100.000000  -27227.77734    205.993240
   11495           0     -2354.848633  -1100.000000  -27227.77734    155.781799
   11496           0     -2717.133301  -1099.999878  -27227.77734    123.758896
   11497           0      2717.133057  -1100.000122  -26852.22265     84.082748
   11498           0      2354.848633  -1100.000000  -26852.22265    142.900742
   11499           0      1992.564331  -1100.000000  -26852.22265    205.052307
   11500           0      1630.279785  -1100.000000  -26852.22265    258.760101
   11501           0      1267.995483  -1100.000000  -26852.22265    301.988068
   11502           0       905.711060  -1100.000000  -26852.22265    334.291840
   11503           0       543.426575  -1100.000000  -26852.22265    355.610474
   11504           0       181.142136  -1100.000000  -26852.22265    365.986237
   11505           0      -181.142288  -1100.000000  -26852.22265    365.482300
   11506           0      -543.426758  -1100.000000  -26852.22265    354.167114
   11507           0      -905.711182  -1100.000000  -26852.22265    332.141510
   11508           0     -1267.995605  -1100.000000  -26852.22265    299.629181
   11509           0     -1630.280029  -1100.000000  -26852.22265    257.224091
   11510           0     -1992.564453  -1100.000000  -26852.22265    206.653015
   11511           0     -2354.848633  -1100.000000  -26852.22265    153.608002
   11512           0     -2717.133301  -1099.999878  -26852.22265    118.729027
   11513           0      2717.133057  -1100.000122  -26476.66796     80.160545
   11514           0      2354.848633  -1100.000000  -26476.66796    142.672195
   11515           0      1992.564331  -1100.000000  -26476.66796    207.010117
   11516           0      1630.279785  -1100.000000  -26476.66796    262.266876
   11517           0      1267.995483  -1100.000000  -26476.66796    306.666016
   11518           0       905.711060  -1100.000000  -26476.66796    339.824097
   11519           0       543.426575  -1100.000000  -26476.66796    361.688141
   11520           0       181.142136  -1100.000000  -26476.66796    372.295258
   11521           0      -181.142288  -1100.000000  -26476.66796    371.703003
   11522           0      -543.426758  -1100.000000  -26476.66796    359.977814
   11523           0      -905.711182  -1100.000000  -26476.66796    337.221191
   11524           0     -1267.995605  -1100.000000  -26476.66796    303.653809
   11525           0     -1630.280029  -1100.000000  -26476.66796    259.846344
   11526           0     -1992.564453  -1100.000000  -26476.66796    207.444031
   11527           0     -2354.848633  -1100.000000  -26476.66796    151.949463
   11528           0     -2717.133301  -1099.999878  -26476.66796    114.417015
   11529           0      2717.133057  -1100.000122  -26101.11132     77.067253
   11530           0      2354.848633  -1100.000000  -26101.10937    142.773453
   11531           0      1992.564331  -1100.000000  -26101.10937    208.912354
   11532           0      1630.279785  -1100.000000  -26101.10937    265.444946
   11533           0      1267.995483  -1100.000000  -26101.10937    310.811737
   11534           0       905.711060  -1100.000000  -26101.10937    344.676849
   11535           0       543.426575  -1100.000000  -26101.10937    366.992279
   11536           0       181.142136  -1100.000000  -26101.10937    377.789978
   11537           0      -181.142288  -1100.000000  -26101.10937    377.122345
   11538           0      -543.426758  -1100.000000  -26101.10937    365.053833
   11539           0      -905.711182  -1100.000000  -26101.10937    341.686005
   11540           0     -1267.995605  -1100.000000  -26101.10937    307.236237
   11541           0     -1630.280029  -1100.000000  -26101.10937    262.253723
   11542           0     -1992.564453  -1100.000000  -26101.10937    208.306763
   11543           0     -2354.848633  -1100.000000  -26101.10937    150.699890
   11544           0     -2717.133301  -1099.999878  -26101.10937    110.713417
   11545           0      2717.133057  -1100.000122  -25725.55468     74.668144
   11546           0      2354.848633  -1100.000000  -25725.55664    143.103668
   11547           0      1992.564331  -1100.000000  -25725.55664    210.723923
   11548           0      1630.279785  -1100.000000  -25725.55664    268.308868
   11549           0      1267.995483  -1100.000000  -25725.55664    314.476440
   11550           0       905.711060  -1100.000000  -25725.55664    348.927917
   11551           0       543.426575  -1100.000000  -25725.55664    371.617950
   11552           0       181.142136  -1100.000000  -25725.55664    382.573212
   11553           0      -181.142288  -1100.000000  -25725.55664    381.841644
   11554           0      -543.426758  -1100.000000  -25725.55664    369.485504
   11555           0      -905.711182  -1100.000000  -25725.55664    345.606140
   11556           0     -1267.995605  -1100.000000  -25725.55664    310.417389
   11557           0     -1630.280029  -1100.000000  -25725.55664    264.448425
   11558           0     -1992.564453  -1100.000000  -25725.55664    209.196625
   11559           0     -2354.848633  -1100.000000  -25725.55664    149.767715
   11560           0     -2717.133301  -1099.999878  -25725.55468    107.518364
   11561           0      2717.133057  -1100.000122  -25349.99804     72.838890
   11562           0      2354.848633  -1100.000000  -25350.00000    143.584137
   11563           0      1992.564331  -1100.000000  -25350.00000    212.423279
   11564           0      1630.279785  -1100.000000  -25350.00000    270.877716
   11565           0      1267.995483  -1100.000000  -25350.00000    317.709564
   11566           0       905.711060  -1100.000000  -25350.00000    352.648346
   11567           0       543.426575  -1100.000000  -25350.00000    375.649963
   11568           0       181.142136  -1100.000000  -25350.00000    386.736176
   11569           0      -181.142288  -1100.000000  -25350.00000    385.950623
   11570           0      -543.426758  -1100.000000  -25350.00000    373.353516
   11571           0      -905.711182  -1100.000000  -25350.00000    349.045593
   11572           0     -1267.995605  -1100.000000  -25350.00000    313.236908
   11573           0     -1630.280029  -1100.000000  -25350.00000    266.438171
   11574           0     -1992.564453  -1100.000000  -25350.00000    210.081284
   11575           0     -2354.848633  -1100.000000  -25350.00000    149.077881
   11576           0     -2717.133301  -1099.999878  -25350.00000    104.742943
   11577           0      2717.133057  -1100.000122  -24974.44335     71.467155
   11578           0      2354.848633  -1100.000000  -24974.44335    144.155777
   11579           0      1992.564331  -1100.000000  -24974.44335    213.999176
   11580           0      1630.279785  -1100.000000  -24974.44335    273.173553
   11581           0      1267.995483  -1100.000000  -24974.44335    320.557587
   11582           0       905.711060  -1100.000000  -24974.44335    355.902374
   11583           0       543.426575  -1100.000000  -24974.44335    379.163849
   11584           0       181.142136  -1100.000000  -24974.44335    390.359314
   11585           0      -181.142288  -1100.000000  -24974.44335    389.528351
   11586           0      -543.426758  -1100.000000  -24974.44335    376.729462
   11587           0      -905.711182  -1100.000000  -24974.44335    352.062103
   11588           0     -1267.995605  -1100.000000  -24974.44335    315.732544
   11589           0     -1630.280029  -1100.000000  -24974.44335    268.234222
   11590           0     -1992.564453  -1100.000000  -24974.44335    210.938416
   11591           0     -2354.848633  -1100.000000  -24974.44335    148.569992
   11592           0     -2717.133301  -1099.999878  -24974.44335    102.310585
   11593           0      2717.133057  -1100.000122  -24598.89062     70.456032
   11594           0      2354.848633  -1100.000000  -24598.89257    144.774796
   11595           0      1992.564331  -1100.000000  -24598.89257    215.447830
   11596           0      1630.279785  -1100.000000  -24598.89257    275.220062
   11597           0      1267.995483  -1100.000000  -24598.89257    323.064209
   11598           0       905.711060  -1100.000000  -24598.89257    358.747986
   11599           0       543.426575  -1100.000000  -24598.89257    382.226776
   11600           0       181.142136  -1100.000000  -24598.89257    393.513794
   11601           0      -181.142288  -1100.000000  -24598.89257    392.645020
   11602           0      -543.426758  -1100.000000  -24598.89257    379.676941
   11603           0      -905.711182  -1100.000000  -24598.89257    354.707886
   11604           0     -1267.995605  -1100.000000  -24598.89257    317.939880
   11605           0     -1630.280029  -1100.000000  -24598.89257    269.849976
   11606           0     -1992.564453  -1100.000000  -24598.89257    211.753494
   11607           0     -2354.848633  -1100.000000  -24598.89257    148.196381
   11608           0     -2717.133301  -1099.999878  -24598.89062    100.157227
   11609           0      2717.133057  -1100.000122  -24223.33398     69.724258
   11610           0      2354.848633  -1100.000000  -24223.33593    145.409866
   11611           0      1992.564331  -1100.000000  -24223.33593    216.770477
   11612           0      1630.279785  -1100.000000  -24223.33593    277.040619
   11613           0      1267.995483  -1100.000000  -24223.33593    325.269012
   11614           0       905.711060  -1100.000000  -24223.33593    361.236603
   11615           0       543.426575  -1100.000000  -24223.33593    384.897736
   11616           0       181.142136  -1100.000000  -24223.33593    396.261749
   11617           0      -181.142288  -1100.000000  -24223.33593    395.361664
   11618           0      -543.426758  -1100.000000  -24223.33593    382.251923
   11619           0      -905.711182  -1100.000000  -24223.33593    357.029297
   11620           0     -1267.995605  -1100.000000  -24223.33593    319.891510
   11621           0     -1630.280029  -1100.000000  -24223.33593    271.299896
   11622           0     -1992.564453  -1100.000000  -24223.33593    212.517700
   11623           0     -2354.848633  -1100.000000  -24223.33593    147.920166
   11624           0     -2717.133301  -1099.999878  -24223.33398     98.229202
   11625           0      2717.133057  -1100.000122  -23847.77734     69.205177
   11626           0      2354.848633  -1100.000000  -23847.77734    146.038971
   11627           0      1992.564331  -1100.000000  -23847.77734    217.971756
   11628           0      1630.279785  -1100.000000  -23847.77734    278.657776
   11629           0      1267.995483  -1100.000000  -23847.77734    327.208130
   11630           0       905.711060  -1100.000000  -23847.77734    363.413940
   11631           0       543.426575  -1100.000000  -23847.77734    387.228485
   11632           0       181.142136  -1100.000000  -23847.77734    398.657776
   11633           0      -181.142288  -1100.000000  -23847.77734    397.731934
   11634           0      -543.426758  -1100.000000  -23847.77734    384.503540
   11635           0      -905.711182  -1100.000000  -23847.77734    359.067535
   11636           0     -1267.995605  -1100.000000  -23847.77734    321.617218
   11637           0     -1630.280029  -1100.000000  -23847.77734    272.598846
   11638           0     -1992.564453  -1100.000000  -23847.77734    213.226501
   11639           0     -2354.848633  -1100.000000  -23847.77734    147.712875
   11640           0     -2717.133301  -1099.999878  -23847.77734     96.483368
   11641           0      2717.133057  -1100.000122  -23472.22265     68.845543
   11642           0      2354.848633  -1100.000000  -23472.22265    146.647156
   11643           0      1992.564331  -1100.000000  -23472.22265    219.058151
   11644           0      1630.279785  -1100.000000  -23472.22265    280.092773
   11645           0      1267.995483  -1100.000000  -23472.22265    328.913574
   11646           0       905.711060  -1100.000000  -23472.22265    365.319946
   11647           0       543.426575  -1100.000000  -23472.22265    389.263977
   11648           0       181.142136  -1100.000000  -23472.22265    400.748901
   11649           0      -181.142288  -1100.000000  -23472.22265    399.802124
   11650           0      -543.426758  -1100.000000  -23472.22265    386.474457
   11651           0      -905.711182  -1100.000000  -23472.22265    360.858734
   11652           0     -1267.995605  -1100.000000  -23472.22265    323.143646
   11653           0     -1630.280029  -1100.000000  -23472.22265    273.760925
   11654           0     -1992.564453  -1100.000000  -23472.22265    213.878281
   11655           0     -2354.848633  -1100.000000  -23472.22265    147.553146
   11656           0     -2717.133301  -1099.999878  -23472.22265     94.883842
   11657           0      2717.133057  -1100.000122  -23096.66406     68.602837
   11658           0      2354.848633  -1100.000000  -23096.66210    147.224640
   11659           0      1992.564331  -1100.000000  -23096.66210    220.037323
   11660           0      1630.279785  -1100.000000  -23096.66210    281.365234
   11661           0      1267.995483  -1100.000000  -23096.66210    330.414093
   11662           0       905.711060  -1100.000000  -23096.66210    366.989868
   11663           0       543.426575  -1100.000000  -23096.66210    391.043671
   11664           0       181.142136  -1100.000000  -23096.66210    402.576233
   11665           0      -181.142288  -1100.000000  -23096.66210    401.612701
   11666           0      -543.426758  -1100.000000  -23096.66210    388.201965
   11667           0      -905.711182  -1100.000000  -23096.66210    362.434753
   11668           0     -1267.995605  -1100.000000  -23096.66210    324.494873
   11669           0     -1630.280029  -1100.000000  -23096.66210    274.799835
   11670           0     -1992.564453  -1100.000000  -23096.66210    214.473511
   11671           0     -2354.848633  -1100.000000  -23096.66210    147.424637
   11672           0     -2717.133301  -1099.999878  -23096.66406     93.402687
   11673           0      2717.133057  -1100.000122  -22721.10937     68.444542
   11674           0      2354.848633  -1100.000000  -22721.10546    147.765106
   11675           0      1992.564331  -1100.000000  -22721.10546    220.916855
   11676           0      1630.279785  -1100.000000  -22721.10546    282.492523
   11677           0      1267.995483  -1100.000000  -22721.10546    331.734192
   11678           0       905.711060  -1100.000000  -22721.10546    368.453491
   11679           0       543.426575  -1100.000000  -22721.10546    392.600769
   11680           0       181.142136  -1100.000000  -22721.10546    404.174561
   11681           0      -181.142288  -1100.000000  -22721.10546    403.197815
   11682           0      -543.426758  -1100.000000  -22721.10546    389.717590
   11683           0      -905.711182  -1100.000000  -22721.10546    363.822571
   11684           0     -1267.995605  -1100.000000  -22721.10546    325.691376
   11685           0     -1630.280029  -1100.000000  -22721.10546    275.727783
   11686           0     -1992.564453  -1100.000000  -22721.10546    215.013550
   11687           0     -2354.848633  -1100.000000  -22721.10546    147.315369
   11688           0     -2717.133301  -1099.999878  -22721.10742     92.016876
   11689           0      2717.133057  -1100.000122  -22345.55468     68.344681
   11690           0      2354.848633  -1100.000000  -22345.55078    148.264984
   11691           0      1992.564331  -1100.000000  -22345.55078    221.704681
   11692           0      1630.279785  -1100.000000  -22345.55078    283.490509
   11693           0      1267.995483  -1100.000000  -22345.55078    332.895813
   11694           0       905.711060  -1100.000000  -22345.55078    369.737305
   11695           0       543.426575  -1100.000000  -22345.55078    393.964569
   11696           0       181.142136  -1100.000000  -22345.55078    405.574188
   11697           0      -181.142288  -1100.000000  -22345.55078    404.587280
   11698           0      -543.426758  -1100.000000  -22345.55078    391.049194
   11699           0      -905.711182  -1100.000000  -22345.55078    365.046112
   11700           0     -1267.995605  -1100.000000  -22345.55078    326.751709
   11701           0     -1630.280029  -1100.000000  -22345.55078    276.556122
   11702           0     -1992.564453  -1100.000000  -22345.55078    215.500946
   11703           0     -2354.848633  -1100.000000  -22345.55078    147.216248
   11704           0     -2717.133301  -1099.999878  -22345.55273     90.708420
   11705           0      2717.133057  -1100.000122  -21970.00000     68.283585
   11706           0      2354.848633  -1100.000000  -21970.00000    148.722580
   11707           0      1992.564331  -1100.000000  -21970.00000    222.408142
   11708           0      1630.279785  -1100.000000  -21970.00000    284.373108
   11709           0      1267.995483  -1100.000000  -21970.00000    333.917999
   11710           0       905.711060  -1100.000000  -21970.00000    370.863861
   11711           0       543.426575  -1100.000000  -21970.00000    395.159882
   11712           0       181.142136  -1100.000000  -21970.00000    406.801025
   11713           0      -181.142288  -1100.000000  -21970.00000    405.806610
   11714           0      -543.426758  -1100.000000  -21970.00000    392.220337
   11715           0      -905.711182  -1100.000000  -21970.00000    366.125885
   11716           0     -1267.995605  -1100.000000  -21970.00000    327.691772
   11717           0     -1630.280029  -1100.000000  -21970.00000    277.294952
   11718           0     -1992.564453  -1100.000000  -21970.00000    215.938370
   11719           0     -2354.848633  -1100.000000  -21970.00000    147.120590
   11720           0     -2717.133301  -1099.999878  -21969.99804     89.462578
   11721           0      2717.133057  -1100.000122  -21594.44726     68.246201
   11722           0      2354.848633  -1100.000000  -21594.44921    149.137146
   11723           0      1992.564331  -1100.000000  -21594.44921    223.034119
   11724           0      1630.279785  -1100.000000  -21594.44921    285.152527
   11725           0      1267.995483  -1100.000000  -21594.44921    334.816833
   11726           0       905.711060  -1100.000000  -21594.44921    371.852417
   11727           0       543.426575  -1100.000000  -21594.44921    396.207886
   11728           0       181.142136  -1100.000000  -21594.44921    407.876923
   11729           0      -181.142288  -1100.000000  -21594.44921    406.877319
   11730           0      -543.426758  -1100.000000  -21594.44921    393.251099
   11731           0      -905.711182  -1100.000000  -21594.44921    367.079346
   11732           0     -1267.995605  -1100.000000  -21594.44921    328.525482
   11733           0     -1630.280029  -1100.000000  -21594.44921    277.953308
   11734           0     -1992.564453  -1100.000000  -21594.44921    216.328629
   11735           0     -2354.848633  -1100.000000  -21594.44921    147.023483
   11736           0     -2717.133301  -1099.999878  -21594.44531     88.267715
   11737           0      2717.133057  -1100.000122  -21218.88867     68.220863
   11738           0      2354.848633  -1100.000000  -21218.88867    149.508896
   11739           0      1992.564331  -1100.000000  -21218.88867    223.588776
   11740           0      1630.279785  -1100.000000  -21218.88867    285.839264
   11741           0      1267.995483  -1100.000000  -21218.88867    335.606476
   11742           0       905.711060  -1100.000000  -21218.88867    372.719421
   11743           0       543.426575  -1100.000000  -21218.88867    397.126678
   11744           0       181.142136  -1100.000000  -21218.88867    408.820740
   11745           0      -181.142288  -1100.000000  -21218.88867    407.817963
   11746           0      -543.426758  -1100.000000  -21218.88867    394.158630
   11747           0      -905.711182  -1100.000000  -21218.88867    367.921448
   11748           0     -1267.995605  -1100.000000  -21218.88867    329.264557
   11749           0     -1630.280029  -1100.000000  -21218.88867    278.539001
   11750           0     -1992.564453  -1100.000000  -21218.88867    216.674591
   11751           0     -2354.848633  -1100.000000  -21218.88867    146.921249
   11752           0     -2717.133301  -1099.999878  -21218.88867     87.114555
   11753           0      2717.133057  -1100.000122  -20843.33398     68.198631
   11754           0      2354.848633  -1100.000000  -20843.33398    149.838425
   11755           0      1992.564331  -1100.000000  -20843.33398    224.077667
   11756           0      1630.279785  -1100.000000  -20843.33398    286.442535
   11757           0      1267.995483  -1100.000000  -20843.33398    336.298737
   11758           0       905.711060  -1100.000000  -20843.33398    373.478851
   11759           0       543.426575  -1100.000000  -20843.33398    397.931458
   11760           0       181.142136  -1100.000000  -20843.33398    409.648132
   11761           0      -181.142288  -1100.000000  -20843.33398    408.643951
   11762           0      -543.426758  -1100.000000  -20843.33398    394.957458
   11763           0      -905.711182  -1100.000000  -20843.33398    368.664917
   11764           0     -1267.995605  -1100.000000  -20843.33398    329.919128
   11765           0     -1630.280029  -1100.000000  -20843.33398    279.058746
   11766           0     -1992.564453  -1100.000000  -20843.33398    216.978790
   11767           0     -2354.848633  -1100.000000  -20843.33398    146.811234
   11768           0     -2717.133301  -1099.999878  -20843.33398     85.995461
   11769           0      2717.133057  -1100.000122  -20467.77929     68.172668
   11770           0      2354.848633  -1100.000000  -20467.78125    150.126617
   11771           0      1992.564331  -1100.000000  -20467.78125    224.505646
   11772           0      1630.279785  -1100.000000  -20467.78125    286.970123
   11773           0      1267.995483  -1100.000000  -20467.78125    336.903717
   11774           0       905.711060  -1100.000000  -20467.78125    374.142487
   11775           0       543.426575  -1100.000000  -20467.78125    398.635223
   11776           0       181.142136  -1100.000000  -20467.78125    410.372528
   11777           0      -181.142288  -1100.000000  -20467.78125    409.368408
   11778           0      -543.426758  -1100.000000  -20467.78125    395.659851
   11779           0      -905.711182  -1100.000000  -20467.78125    369.320435
   11780           0     -1267.995605  -1100.000000  -20467.78125    330.497833
   11781           0     -1630.280029  -1100.000000  -20467.78125    279.518494
   11782           0     -1992.564453  -1100.000000  -20467.78125    217.243729
   11783           0     -2354.848633  -1100.000000  -20467.78125    146.691360
   11784           0     -2717.133301  -1099.999878  -20467.77929     84.904442
   11785           0      2717.133057  -1100.000122  -20092.22070     68.137772
   11786           0      2354.848633  -1100.000000  -20092.21875    150.374420
   11787           0      1992.564331  -1100.000000  -20092.21875    224.876953
   11788           0      1630.279785  -1100.000000  -20092.21875    287.428680
   11789           0      1267.995483  -1100.000000  -20092.21875    337.430023
   11790           0       905.711060  -1100.000000  -20092.21875    374.720337
   11791           0       543.426575  -1100.000000  -20092.21875    399.248688
   11792           0       181.142136  -1100.000000  -20092.21875    411.005066
   11793           0      -181.142288  -1100.000000  -20092.21875    410.002380
   11794           0      -543.426758  -1100.000000  -20092.21875    396.276031
   11795           0      -905.711182  -1100.000000  -20092.21875    369.897034
   11796           0     -1267.995605  -1100.000000  -20092.21875    331.007996
   11797           0     -1630.280029  -1100.000000  -20092.21875    279.923187
   11798           0     -1992.564453  -1100.000000  -20092.21875    217.471497
   11799           0     -2354.848633  -1100.000000  -20092.21875    146.560150
   11800           0     -2717.133301  -1099.999878  -20092.22070     83.836388
   11801           0      2717.133057  -1100.000122  -19716.66601     68.089745
   11802           0      2354.848633  -1100.000000  -19716.66601    150.582855
   11803           0      1992.564331  -1100.000000  -19716.66601    225.195251
   11804           0      1630.279785  -1100.000000  -19716.66601    287.823853
   11805           0      1267.995483  -1100.000000  -19716.66601    337.884827
   11806           0       905.711060  -1100.000000  -19716.66601    375.220734
   11807           0       543.426575  -1100.000000  -19716.66601    399.781067
   11808           0       181.142136  -1100.000000  -19716.66601    411.555176
   11809           0      -181.142288  -1100.000000  -19716.66601    410.555054
   11810           0      -543.426758  -1100.000000  -19716.66601    396.814667
   11811           0      -905.711182  -1100.000000  -19716.66601    370.402405
   11812           0     -1267.995605  -1100.000000  -19716.66601    331.455719
   11813           0     -1630.280029  -1100.000000  -19716.66601    280.277191
   11814           0     -1992.564453  -1100.000000  -19716.66601    217.664032
   11815           0     -2354.848633  -1100.000000  -19716.66601    146.416443
   11816           0     -2717.133301  -1099.999878  -19716.66601     82.787331
   11817           0      2717.133057  -1100.000122  -19341.11328     68.025528
   11818           0      2354.848633  -1100.000000  -19341.11328    150.752792
   11819           0      1992.564331  -1100.000000  -19341.11328    225.463547
   11820           0      1630.279785  -1100.000000  -19341.11328    288.160309
   11821           0      1267.995483  -1100.000000  -19341.11328    338.273956
   11822           0       905.711060  -1100.000000  -19341.11328    375.650452
   11823           0       543.426575  -1100.000000  -19341.11328    400.239624
   11824           0       181.142136  -1100.000000  -19341.11328    412.030457
   11825           0      -181.142288  -1100.000000  -19341.11328    411.034027
   11826           0      -543.426758  -1100.000000  -19341.11328    397.282776
   11827           0      -905.711182  -1100.000000  -19341.11328    370.842651
   11828           0     -1267.995605  -1100.000000  -19341.11328    331.845978
   11829           0     -1630.280029  -1100.000000  -19341.11328    280.583832
   11830           0     -1992.564453  -1100.000000  -19341.11328    217.822876
   11831           0     -2354.848633  -1100.000000  -19341.11328    146.259354
   11832           0     -2717.133301  -1099.999878  -19341.11328     81.754051
   11833           0      2717.133057  -1100.000122  -18965.55468     67.942596
   11834           0      2354.848633  -1100.000000  -18965.55468    150.885040
   11835           0      1992.564331  -1100.000000  -18965.55468    225.684433
   11836           0      1630.279785  -1100.000000  -18965.55468    288.441925
   11837           0      1267.995483  -1100.000000  -18965.55468    338.602417
   11838           0       905.711060  -1100.000000  -18965.55468    376.015137
   11839           0       543.426575  -1100.000000  -18965.55468    400.630585
   11840           0       181.142136  -1100.000000  -18965.55468    412.437256
   11841           0      -181.142288  -1100.000000  -18965.55468    411.445526
   11842           0      -543.426758  -1100.000000  -18965.55468    397.686279
   11843           0      -905.711182  -1100.000000  -18965.55468    371.223053
   11844           0     -1267.995605  -1100.000000  -18965.55468    332.182983
   11845           0     -1630.280029  -1100.000000  -18965.55468    280.846222
   11846           0     -1992.564453  -1100.000000  -18965.55468    217.949356
   11847           0     -2354.848633  -1100.000000  -18965.55468    146.088135
   11848           0     -2717.133301  -1099.999878  -18965.55468     80.733589
   11849           0      2717.133057  -1100.000122  -18590.00000     67.838966
   11850           0      2354.848633  -1100.000000  -18590.00000    150.980392
   11851           0      1992.564331  -1100.000000  -18590.00000    225.860001
   11852           0      1630.279785  -1100.000000  -18590.00000    288.671844
   11853           0      1267.995483  -1100.000000  -18590.00000    338.874207
   11854           0       905.711060  -1100.000000  -18590.00000    376.319489
   11855           0       543.426575  -1100.000000  -18590.00000    400.958923
   11856           0       181.142136  -1100.000000  -18590.00000    412.780792
   11857           0      -181.142288  -1100.000000  -18590.00000    411.794525
   11858           0      -543.426758  -1100.000000  -18590.00000    398.029846
   11859           0      -905.711182  -1100.000000  -18590.00000    371.547577
   11860           0     -1267.995605  -1100.000000  -18590.00000    332.470154
   11861           0     -1630.280029  -1100.000000  -18590.00000    281.066559
   11862           0     -1992.564453  -1100.000000  -18590.00000    218.044601
   11863           0     -2354.848633  -1100.000000  -18590.00000    145.902161
   11864           0     -2717.133301  -1099.999878  -18590.00000     79.723709
   11865           0      2717.133057  -1100.000122  -18214.44531     67.713051
   11866           0      2354.848633  -1100.000000  -18214.44531    151.039322
   11867           0      1992.564331  -1100.000000  -18214.44531    225.991959
   11868           0      1630.279785  -1100.000000  -18214.44531    288.852448
   11869           0      1267.995483  -1100.000000  -18214.44531    339.092316
   11870           0       905.711060  -1100.000000  -18214.44531    376.567078
   11871           0       543.426575  -1100.000000  -18214.44531    401.228607
   11872           0       181.142136  -1100.000000  -18214.44531    413.065033
   11873           0      -181.142288  -1100.000000  -18214.44531    412.085144
   11874           0      -543.426758  -1100.000000  -18214.44531    398.317230
   11875           0      -905.711182  -1100.000000  -18214.44531    371.819702
   11876           0     -1267.995605  -1100.000000  -18214.44531    332.710175
   11877           0     -1630.280029  -1100.000000  -18214.44531    281.246796
   11878           0     -1992.564453  -1100.000000  -18214.44531    218.109375
   11879           0     -2354.848633  -1100.000000  -18214.44531    145.700867
   11880           0     -2717.133301  -1099.999878  -18214.44531     78.722343
   11881           0      2717.133057  -1100.000122  -17838.88867     67.563538
   11882           0      2354.848633  -1100.000000  -17838.88671    151.062286
   11883           0      1992.564331  -1100.000000  -17838.88671    226.081543
   11884           0      1630.279785  -1100.000000  -17838.88671    288.985870
   11885           0      1267.995483  -1100.000000  -17838.88671    339.259338
   11886           0       905.711060  -1100.000000  -17838.88671    376.760681
   11887           0       543.426575  -1100.000000  -17838.88671    401.442596
   11888           0       181.142136  -1100.000000  -17838.88671    413.293152
   11889           0      -181.142288  -1100.000000  -17838.88671    412.320343
   11890           0      -543.426758  -1100.000000  -17838.88671    398.551270
   11891           0      -905.711182  -1100.000000  -17838.88671    372.041901
   11892           0     -1267.995605  -1100.000000  -17838.88671    332.904999
   11893           0     -1630.280029  -1100.000000  -17838.88671    281.388306
   11894           0     -1992.564453  -1100.000000  -17838.88671    218.144302
   11895           0     -2354.848633  -1100.000000  -17838.88671    145.483719
   11896           0     -2717.133301  -1099.999878  -17838.88867     77.727852
   11897           0      2717.133057  -1100.000122  -17463.33007     67.389328
   11898           0      2354.848633  -1100.000000  -17463.32812    151.049530
   11899           0      1992.564331  -1100.000000  -17463.32812    226.129608
   11900           0      1630.279785  -1100.000000  -17463.32812    289.073303
   11901           0      1267.995483  -1100.000000  -17463.32812    339.376892
   11902           0       905.711060  -1100.000000  -17463.32812    376.902252
   11903           0       543.426575  -1100.000000  -17463.32812    401.603058
   11904           0       181.142136  -1100.000000  -17463.32812    413.467255
   11905           0      -181.142288  -1100.000000  -17463.32812    412.502319
   11906           0      -543.426758  -1100.000000  -17463.32812    398.733978
   11907           0      -905.711182  -1100.000000  -17463.32812    372.215881
   11908           0     -1267.995605  -1100.000000  -17463.32812    333.056091
   11909           0     -1630.280029  -1100.000000  -17463.32812    281.492035
   11910           0     -1992.564453  -1100.000000  -17463.32812    218.149673
   11911           0     -2354.848633  -1100.000000  -17463.32812    145.250183
   11912           0     -2717.133301  -1099.999878  -17463.33007     76.738747
   11913           0      2717.133057  -1100.000122  -17087.77539     67.189453
   11914           0      2354.848633  -1100.000000  -17087.77343    151.001083
   11915           0      1992.564331  -1100.000000  -17087.77343    226.136734
   11916           0      1630.279785  -1100.000000  -17087.77343    289.115662
   11917           0      1267.995483  -1100.000000  -17087.77343    339.446075
   11918           0       905.711060  -1100.000000  -17087.77343    376.993134
   11919           0       543.426575  -1100.000000  -17087.77343    401.711395
   11920           0       181.142136  -1100.000000  -17087.77343    413.588898
   11921           0      -181.142288  -1100.000000  -17087.77343    412.632507
   11922           0      -543.426758  -1100.000000  -17087.77343    398.866760
   11923           0      -905.711182  -1100.000000  -17087.77343    372.342804
   11924           0     -1267.995605  -1100.000000  -17087.77343    333.164307
   11925           0     -1630.280029  -1100.000000  -17087.77343    281.558533
   11926           0     -1992.564453  -1100.000000  -17087.77343    218.125626
   11927           0     -2354.848633  -1100.000000  -17087.77343    144.999680
   11928           0     -2717.133301  -1099.999878  -17087.77539     75.753761
   11929           0      2717.133057  -1100.000122  -16712.22070     66.963089
   11930           0      2354.848633  -1100.000000  -16712.21875    150.916885
   11931           0      1992.564331  -1100.000000  -16712.21875    226.103073
   11932           0      1630.279785  -1100.000000  -16712.21875    289.113281
   11933           0      1267.995483  -1100.000000  -16712.21875    339.467346
   11934           0       905.711060  -1100.000000  -16712.21875    377.033813
   11935           0       543.426575  -1100.000000  -16712.21875    401.768188
   11936           0       181.142136  -1100.000000  -16712.21875    413.658630
   11937           0      -181.142288  -1100.000000  -16712.21875    412.711487
   11938           0      -543.426758  -1100.000000  -16712.21875    398.950073
   11939           0      -905.711182  -1100.000000  -16712.21875    372.423218
   11940           0     -1267.995605  -1100.000000  -16712.21875    333.229980
   11941           0     -1630.279907  -1100.000000  -16712.21875    281.587921
   11942           0     -1992.564331  -1100.000000  -16712.21875    218.071991
   11943           0     -2354.848633  -1100.000000  -16712.21875    144.731659
   11944           0     -2717.133301  -1099.999878  -16712.22070     74.771812
   11945           0      2717.133057  -1100.000122  -16336.66406     66.709518
   11946           0      2354.848633  -1100.000000  -16336.66210    150.796585
   11947           0      1992.564331  -1100.000000  -16336.66210    226.028412
   11948           0      1630.279785  -1100.000000  -16336.66210    289.065918
   11949           0      1267.995483  -1100.000000  -16336.66210    339.440643
   11950           0       905.711060  -1100.000000  -16336.66210    377.024231
   11951           0       543.426575  -1100.000000  -16336.66210    401.773376
   11952           0       181.142136  -1100.000000  -16336.66210    413.676453
   11953           0      -181.142288  -1100.000000  -16336.66210    412.739166
   11954           0      -543.426758  -1100.000000  -16336.66210    398.983795
   11955           0      -905.711182  -1100.000000  -16336.66210    372.456879
   11956           0     -1267.995605  -1100.000000  -16336.66210    333.252899
   11957           0     -1630.279785  -1100.000000  -16336.66210    281.579956
   11958           0     -1992.564209  -1100.000000  -16336.66210    217.988403
   11959           0     -2354.849121  -1100.000000  -16336.66210    144.445404
   11960           0     -2717.133301  -1099.999878  -16336.66406     73.791733
   11961           0      2717.133057  -1100.000122  -15961.11230     66.427971
   11962           0      2354.848633  -1100.000000  -15961.11425    150.639847
   11963           0      1992.564331  -1100.000000  -15961.11425    225.912247
   11964           0      1630.279785  -1100.000000  -15961.11425    288.973114
   11965           0      1267.995483  -1100.000000  -15961.11425    339.365204
   11966           0       905.711060  -1100.000000  -15961.11425    376.963623
   11967           0       543.426575  -1100.000000  -15961.11425    401.726166
   11968           0       181.142136  -1100.000000  -15961.11425    413.641418
   11969           0      -181.142288  -1100.000000  -15961.11425    412.714752
   11970           0      -543.426758  -1100.000000  -15961.11425    398.967163
   11971           0      -905.711182  -1100.000000  -15961.11425    372.443054
   11972           0     -1267.995605  -1100.000000  -15961.11425    333.232483
   11973           0     -1630.279785  -1100.000000  -15961.11425    281.533966
   11974           0     -1992.564209  -1100.000000  -15961.11425    217.874222
   11975           0     -2354.849121  -1100.000000  -15961.11425    144.140289
   11976           0     -2717.133301  -1099.999878  -15961.11230     72.813080
   11977           0      2717.133057  -1100.000122  -15585.55566     66.118019
   11978           0      2354.848633  -1100.000000  -15585.55664    150.445786
   11979           0      1992.564331  -1100.000000  -15585.55664    225.753723
   11980           0      1630.279785  -1100.000000  -15585.55664    288.833710
   11981           0      1267.995483  -1100.000000  -15585.55664    339.239777
   11982           0       905.711060  -1100.000000  -15585.55664    376.850494
   11983           0       543.426575  -1100.000000  -15585.55664    401.624969
   11984           0       181.142136  -1100.000000  -15585.55664    413.551941
   11985           0      -181.142288  -1100.000000  -15585.55664    412.636536
   11986           0      -543.426758  -1100.000000  -15585.55664    398.898621
   11987           0      -905.711182  -1100.000000  -15585.55664    372.380280
   11988           0     -1267.995605  -1100.000000  -15585.55664    333.167267
   11989           0     -1630.279785  -1100.000000  -15585.55664    281.448944
   11990           0     -1992.564209  -1100.000000  -15585.55664    217.728592
   11991           0     -2354.849121  -1100.000000  -15585.55664    143.815445
   11992           0     -2717.133301  -1099.999878  -15585.55566     71.834915
   11993           0      2717.133057  -1100.000122  -15209.99902     65.778633
   11994           0      2354.848633  -1100.000000  -15210.00000    150.213791
   11995           0      1992.564331  -1100.000000  -15210.00000    225.551529
   11996           0      1630.279785  -1100.000000  -15210.00000    288.645996
   11997           0      1267.995483  -1100.000000  -15210.00000    339.062408
   11998           0       905.711060  -1100.000000  -15210.00000    376.682709
   11999           0       543.426575  -1100.000000  -15210.00000    401.467377
   12000           0       181.142136  -1100.000000  -15210.00000    413.405670
   12001           0      -181.142288  -1100.000000  -15210.00000    412.502228
   12002           0      -543.426758  -1100.000000  -15210.00000    398.775879
   12003           0      -905.711182  -1100.000000  -15210.00000    372.266571
   12004           0     -1267.995605  -1100.000000  -15210.00000    333.055573
   12005           0     -1630.279785  -1100.000000  -15210.00000    281.323273
   12006           0     -1992.564209  -1100.000000  -15210.00000    217.550293
   12007           0     -2354.849121  -1100.000000  -15210.00000    143.470001
   12008           0     -2717.133301  -1099.999878  -15209.99902     70.856857
   12009           0      2717.133057  -1100.000122  -14834.44433     65.409790
   12010           0      2354.848633  -1100.000000  -14834.44433    149.942688
   12011           0      1992.564331  -1100.000000  -14834.44433    225.303864
   12012           0      1630.279785  -1100.000000  -14834.44433    288.407806
   12013           0      1267.995483  -1100.000000  -14834.44433    338.830322
   12014           0       905.711060  -1100.000000  -14834.44433    376.457214
   12015           0       543.426575  -1100.000000  -14834.44433    401.250153
   12016           0       181.142136  -1100.000000  -14834.44433    413.199127
   12017           0      -181.142288  -1100.000000  -14834.44433    412.308411
   12018           0      -543.426758  -1100.000000  -14834.44433    398.595764
   12019           0      -905.711182  -1100.000000  -14834.44433    372.098907
   12020           0     -1267.995605  -1100.000000  -14834.44433    332.894836
   12021           0     -1630.279785  -1100.000000  -14834.44433    281.155029
   12022           0     -1992.564209  -1100.000000  -14834.44433    217.337784
   12023           0     -2354.849121  -1100.000000  -14834.44433    143.102966
   12024           0     -2717.133301  -1099.999878  -14834.44335     69.878319
   12025           0      2717.133057  -1100.000122  -14458.88769     65.011681
   12026           0      2354.848633  -1100.000000  -14458.88769    149.630646
   12027           0      1992.564331  -1100.000000  -14458.88769    225.008865
   12028           0      1630.279785  -1100.000000  -14458.88769    288.116150
   12029           0      1267.995483  -1100.000000  -14458.88769    338.540283
   12030           0       905.711060  -1100.000000  -14458.88769    376.170074
   12031           0       543.426575  -1100.000000  -14458.88769    400.969238
   12032           0       181.142136  -1100.000000  -14458.88769    412.928162
   12033           0      -181.142288  -1100.000000  -14458.88769    412.050903
   12034           0      -543.426758  -1100.000000  -14458.88769    398.354248
   12035           0      -905.711182  -1100.000000  -14458.88769    371.873627
   12036           0     -1267.995605  -1100.000000  -14458.88769    332.681946
   12037           0     -1630.279785  -1100.000000  -14458.88769    280.941528
   12038           0     -1992.564209  -1100.000000  -14458.88769    217.089325
   12039           0     -2354.849121  -1100.000000  -14458.88769    142.713196
   12040           0     -2717.133301  -1099.999878  -14458.88769     68.899651
   12041           0      2717.133057  -1100.000122  -14083.33593     64.582573
   12042           0      2354.848633  -1100.000000  -14083.33984    149.276917
   12043           0      1992.564331  -1100.000000  -14083.33984    224.663452
   12044           0      1630.279785  -1100.000000  -14083.33984    287.767853
   12045           0      1267.995483  -1100.000000  -14083.33984    338.187653
   12046           0       905.711060  -1100.000000  -14083.33984    375.816437
   12047           0       543.426575  -1100.000000  -14083.33984    400.619232
   12048           0       181.142136  -1100.000000  -14083.33984    412.587128
   12049           0      -181.142288  -1100.000000  -14083.33984    411.724243
   12050           0      -543.426758  -1100.000000  -14083.33984    398.046173
   12051           0      -905.711182  -1100.000000  -14083.33984    371.586151
   12052           0     -1267.995605  -1100.000000  -14083.33984    332.412781
   12053           0     -1630.279785  -1100.000000  -14083.33984    280.679840
   12054           0     -1992.564209  -1100.000000  -14083.33984    216.802490
   12055           0     -2354.849121  -1100.000000  -14083.33984    142.299667
   12056           0     -2717.133301  -1099.999878  -14083.33691     67.920227
   12057           0      2717.133057  -1100.000122  -13707.78027     64.123077
   12058           0      2354.848633  -1100.000000  -13707.78320    148.878983
   12059           0      1992.564331  -1100.000000  -13707.78320    224.265167
   12060           0      1630.279785  -1100.000000  -13707.78320    287.358063
   12061           0      1267.995483  -1100.000000  -13707.78320    337.767487
   12062           0       905.711060  -1100.000000  -13707.78320    375.390289
   12063           0       543.426575  -1100.000000  -13707.78320    400.193695
   12064           0       181.142136  -1100.000000  -13707.78320    412.169495
   12065           0      -181.142288  -1100.000000  -13707.78320    411.321808
   12066           0      -543.426758  -1100.000000  -13707.78320    397.665192
   12067           0      -905.711182  -1100.000000  -13707.78320    371.230743
   12068           0     -1267.995605  -1100.000000  -13707.78320    332.082550
   12069           0     -1630.279785  -1100.000000  -13707.78320    280.365723
   12070           0     -1992.564209  -1100.000000  -13707.78320    216.475159
   12071           0     -2354.849121  -1100.000000  -13707.78320    141.860397
   12072           0     -2717.133301  -1099.999878  -13707.78027     66.942413
   12073           0      2717.133057  -1100.000122  -13332.22460     63.634182
   12074           0      2354.848633  -1100.000000  -13332.22656    148.435852
   12075           0      1992.564331  -1100.000000  -13332.22656    223.809265
   12076           0      1630.279785  -1100.000000  -13332.22656    286.881805
   12077           0      1267.995483  -1100.000000  -13332.22656    337.273102
   12078           0       905.711060  -1100.000000  -13332.22656    374.884247
   12079           0       543.426575  -1100.000000  -13332.22656    399.684662
   12080           0       181.142136  -1100.000000  -13332.22656    411.667023
   12081           0      -181.142288  -1100.000000  -13332.22656    410.835510
   12082           0      -543.426758  -1100.000000  -13332.22656    397.203735
   12083           0      -905.711182  -1100.000000  -13332.22656    370.800385
   12084           0     -1267.995605  -1100.000000  -13332.22656    331.685364
   12085           0     -1630.279785  -1100.000000  -13332.22656    279.994781
   12086           0     -1992.564209  -1100.000000  -13332.22656    216.103424
   12087           0     -2354.849121  -1100.000000  -13332.22656    141.395798
   12088           0     -2717.133301  -1099.999878  -13332.22460     65.962418
   12089           0      2717.133057  -1100.000122  -12956.67382     63.115799
   12090           0      2354.848633  -1100.000000  -12956.67968    147.944214
   12091           0      1992.564331  -1100.000000  -12956.67968    223.291428
   12092           0      1630.279785  -1100.000000  -12956.67968    286.333069
   12093           0      1267.995483  -1100.000000  -12956.67968    336.696899
   12094           0       905.711060  -1100.000000  -12956.67968    374.289642
   12095           0       543.426575  -1100.000000  -12956.67968    399.082611
   12096           0       181.142136  -1100.000000  -12956.67968    411.069885
   12097           0      -181.142288  -1100.000000  -12956.67968    410.255585
   12098           0      -543.426758  -1100.000000  -12956.67968    396.652435
   12099           0      -905.711182  -1100.000000  -12956.67968    370.286804
   12100           0     -1267.995605  -1100.000000  -12956.67968    331.213928
   12101           0     -1630.279785  -1100.000000  -12956.67968    279.561615
   12102           0     -1992.564209  -1100.000000  -12956.67968    215.683609
   12103           0     -2354.849121  -1100.000000  -12956.67968    140.903442
   12104           0     -2717.133301  -1099.999878  -12956.67382     64.992790
   12105           0      2717.133057  -1100.000122  -12581.11718     62.575886
   12106           0      2354.848633  -1100.000000  -12581.12304    147.399399
   12107           0      1992.564331  -1100.000000  -12581.12304    222.707825
   12108           0      1630.279785  -1100.000000  -12581.12304    285.703735
   12109           0      1267.995483  -1100.000000  -12581.12304    336.029816
   12110           0       905.711060  -1100.000000  -12581.12304    373.595795
   12111           0       543.426575  -1100.000000  -12581.12304    398.376190
   12112           0       181.142136  -1100.000000  -12581.12304    410.366241
   12113           0      -181.142288  -1100.000000  -12581.12304    409.570374
   12114           0      -543.426758  -1100.000000  -12581.12304    396.000275
   12115           0      -905.711182  -1100.000000  -12581.12304    369.679871
   12116           0     -1267.995605  -1100.000000  -12581.12304    330.660065
   12117           0     -1630.279785  -1100.000000  -12581.12304    279.059204
   12118           0     -1992.564209  -1100.000000  -12581.12304    215.212891
   12119           0     -2354.849121  -1100.000000  -12581.12304    140.377762
   12120           0     -2717.133301  -1099.999878  -12581.11816     64.023521
   12121           0      2717.133057  -1100.000122  -12205.56054     62.007381
   12122           0      2354.848633  -1100.000000  -12205.56445    146.803116
   12123           0      1992.564331  -1100.000000  -12205.56445    222.050262
   12124           0      1630.279785  -1100.000000  -12205.56445    284.985931
   12125           0      1267.995483  -1100.000000  -12205.56445    335.260651
   12126           0       905.711060  -1100.000000  -12205.56445    372.790253
   12127           0       543.426575  -1100.000000  -12205.56445    397.551666
   12128           0       181.142136  -1100.000000  -12205.56445    409.541901
   12129           0      -181.142288  -1100.000000  -12205.56445    408.765686
   12130           0      -543.426758  -1100.000000  -12205.56445    395.233826
   12131           0      -905.711182  -1100.000000  -12205.56445    368.967712
   12132           0     -1267.995605  -1100.000000  -12205.56445    330.013245
   12133           0     -1630.279785  -1100.000000  -12205.56445    278.480438
   12134           0     -1992.564209  -1100.000000  -12205.56445    214.684372
   12135           0     -2354.849121  -1100.000000  -12205.56445    139.824936
   12136           0     -2717.133301  -1099.999878  -12205.56054     63.072277
   12137           0      2717.133057  -1100.000122  -11830.00000     61.420406
   12138           0      2354.848633  -1100.000000  -11830.00097    146.151382
   12139           0      1992.564331  -1100.000000  -11830.00097    221.313217
   12140           0      1630.279785  -1100.000000  -11830.00097    284.169006
   12141           0      1267.995483  -1100.000000  -11830.00097    334.377045
   12142           0       905.711060  -1100.000000  -11830.00097    371.858276
   12143           0       543.426575  -1100.000000  -11830.00097    396.593170
   12144           0       181.142136  -1100.000000  -11830.00097    408.580414
   12145           0      -181.142288  -1100.000000  -11830.00097    407.825348
   12146           0      -543.426758  -1100.000000  -11830.00097    394.337738
   12147           0      -905.711182  -1100.000000  -11830.00097    368.136353
   12148           0     -1267.995605  -1100.000000  -11830.00097    329.262115
   12149           0     -1630.279785  -1100.000000  -11830.00097    277.815948
   12150           0     -1992.564209  -1100.000000  -11830.00097    214.093933
   12151           0     -2354.849121  -1100.000000  -11830.00097    139.240097
   12152           0     -2717.133301  -1099.999878  -11830.00000     62.132431
   12153           0      2717.133057  -1100.000122  -11454.43945     60.823071
   12154           0      2354.848633  -1100.000000  -11454.43554    145.439545
   12155           0      1992.564331  -1100.000000  -11454.43554    220.489212
   12156           0      1630.279785  -1100.000000  -11454.43554    283.241241
   12157           0      1267.995483  -1100.000000  -11454.43554    333.363770
   12158           0       905.711060  -1100.000000  -11454.43554    370.782471
   12159           0       543.426575  -1100.000000  -11454.43554    395.481567
   12160           0       181.142136  -1100.000000  -11454.43554    407.461975
   12161           0      -181.142288  -1100.000000  -11454.43554    406.729553
   12162           0      -543.426758  -1100.000000  -11454.43554    393.293304
   12163           0      -905.711182  -1100.000000  -11454.43554    367.169037
   12164           0     -1267.995605  -1100.000000  -11454.43554    328.392578
   12165           0     -1630.279785  -1100.000000  -11454.43554    277.055389
   12166           0     -1992.564209  -1100.000000  -11454.43554    213.435333
   12167           0     -2354.849121  -1100.000000  -11454.43554    138.621353
   12168           0     -2717.133301  -1099.999878  -11454.44140     61.224247
   12169           0      2717.133057  -1100.000122  -11078.88867     60.225834
   12170           0      2354.848633  -1100.000000  -11078.88867    144.667053
   12171           0      1992.564331  -1100.000000  -11078.88867    219.568573
   12172           0      1630.279785  -1100.000000  -11078.88867    282.189301
   12173           0      1267.995483  -1100.000000  -11078.88867    332.203339
   12174           0       905.711060  -1100.000000  -11078.88867    369.542328
   12175           0       543.426575  -1100.000000  -11078.88867    394.194489
   12176           0       181.142136  -1100.000000  -11078.88867    406.163177
   12177           0      -181.142288  -1100.000000  -11078.88867    405.455322
   12178           0      -543.426758  -1100.000000  -11078.88867    392.078735
   12179           0      -905.711182  -1100.000000  -11078.88867    366.046417
   12180           0     -1267.995605  -1100.000000  -11078.88867    327.388397
   12181           0     -1630.279785  -1100.000000  -11078.88867    276.186859
   12182           0     -1992.564209  -1100.000000  -11078.88867    212.701141
   12183           0     -2354.849121  -1100.000000  -11078.88867    137.970215
   12184           0     -2717.133301  -1099.999878  -11078.88867     60.356880
   12185           0      2717.133057  -1100.000122  -10703.33203     59.644218
   12186           0      2354.848633  -1100.000000  -10703.33007    143.832153
   12187           0      1992.564331  -1100.000000  -10703.33007    218.542236
   12188           0      1630.279785  -1100.000000  -10703.33007    280.997223
   12189           0      1267.995483  -1100.000000  -10703.33007    330.875427
   12190           0       905.711060  -1100.000000  -10703.33007    368.113953
   12191           0       543.426575  -1100.000000  -10703.33007    392.705627
   12192           0       181.142136  -1100.000000  -10703.33007    404.656830
   12193           0      -181.142288  -1100.000000  -10703.33007    403.975403
   12194           0      -543.426758  -1100.000000  -10703.33007    390.668457
   12195           0      -905.711182  -1100.000000  -10703.33007    364.745483
   12196           0     -1267.995605  -1100.000000  -10703.33007    326.230652
   12197           0     -1630.279785  -1100.000000  -10703.33007    275.196442
   12198           0     -1992.564209  -1100.000000  -10703.33007    211.884247
   12199           0     -2354.849121  -1100.000000  -10703.33007    137.287567
   12200           0     -2717.133301  -1099.999878  -10703.33203     59.550461
   12201           0      2717.133057  -1100.000122  -10327.77539     59.101101
   12202           0      2354.848633  -1100.000000  -10327.77246    142.934616
   12203           0      1992.564331  -1100.000000  -10327.77246    217.399887
   12204           0      1630.279785  -1100.000000  -10327.77246    279.647461
   12205           0      1267.995483  -1100.000000  -10327.77246    329.356506
   12206           0       905.711060  -1100.000000  -10327.77246    366.469513
   12207           0       543.426575  -1100.000000  -10327.77246    390.984344
   12208           0       181.142136  -1100.000000  -10327.77246    402.910858
   12209           0      -181.142288  -1100.000000  -10327.77246    402.258240
   12210           0      -543.426758  -1100.000000  -10327.77246    389.032471
   12211           0      -905.711182  -1100.000000  -10327.77246    363.239624
   12212           0     -1267.995605  -1100.000000  -10327.77246    324.897522
   12213           0     -1630.279785  -1100.000000  -10327.77246    274.068420
   12214           0     -1992.564209  -1100.000000  -10327.77246    210.976685
   12215           0     -2354.849121  -1100.000000  -10327.77246    136.576111
   12216           0     -2717.133301  -1099.999878  -10327.77539     58.830971
   12217           0      2717.133057  -1100.000122  -9952.218750     58.628021
   12218           0      2354.848633  -1100.000000  -9952.215820    141.976349
   12219           0      1992.564331  -1100.000000  -9952.215820    216.130692
   12220           0      1630.279785  -1100.000000  -9952.215820    278.120209
   12221           0      1267.995483  -1100.000000  -9952.215820    327.619629
   12222           0       905.711060  -1100.000000  -9952.215820    364.576752
   12223           0       543.426575  -1100.000000  -9952.215820    388.994904
   12224           0       181.142136  -1100.000000  -9952.215820    400.887909
   12225           0      -181.142288  -1100.000000  -9952.215820    400.266632
   12226           0      -543.426758  -1100.000000  -9952.215820    387.135925
   12227           0      -905.711182  -1100.000000  -9952.215820    361.498016
   12228           0     -1267.995605  -1100.000000  -9952.215820    323.363861
   12229           0     -1630.279785  -1100.000000  -9952.215820    272.785156
   12230           0     -1992.564209  -1100.000000  -9952.215820    209.970551
   12231           0     -2354.849121  -1100.000000  -9952.215820    135.840851
   12232           0     -2717.133301  -1099.999878  -9952.218750     58.234344
   12233           0      2717.133057  -1100.000122  -9576.661133     58.267933
   12234           0      2354.848633  -1100.000000  -9576.657227    140.962708
   12235           0      1992.564331  -1100.000000  -9576.657227    214.723511
   12236           0      1630.279785  -1100.000000  -9576.657227    276.392761
   12237           0      1267.995483  -1100.000000  -9576.657227    325.633606
   12238           0       905.711060  -1100.000000  -9576.657227    362.398102
   12239           0       543.426575  -1100.000000  -9576.657227    386.695587
   12240           0       181.142136  -1100.000000  -9576.657227    398.544434
   12241           0      -181.142288  -1100.000000  -9576.657227    397.957275
   12242           0      -543.426758  -1100.000000  -9576.657227    384.938110
   12243           0      -905.711182  -1100.000000  -9576.657227    359.484741
   12244           0     -1267.995605  -1100.000000  -9576.657227    321.600647
   12245           0     -1630.279785  -1100.000000  -9576.657227    271.327026
   12246           0     -1992.564209  -1100.000000  -9576.657227    208.857727
   12247           0     -2354.849121  -1100.000000  -9576.657227    135.091339
   12248           0     -2717.133301  -1099.999878  -9576.661133     57.807968
   12249           0      2717.133057  -1100.000122  -9201.110352     58.079964
   12250           0      2354.848633  -1100.000000  -9201.109375    139.903534
   12251           0      1992.564331  -1100.000000  -9201.109375    213.167709
   12252           0      1630.279785  -1100.000000  -9201.109375    274.440979
   12253           0      1267.995483  -1100.000000  -9201.109375    323.363708
   12254           0       905.711060  -1100.000000  -9201.109375    359.890991
   12255           0       543.426575  -1100.000000  -9201.109375    384.038635
   12256           0       181.142136  -1100.000000  -9201.109375    395.830078
   12257           0      -181.142288  -1100.000000  -9201.109375    395.280396
   12258           0      -543.426758  -1100.000000  -9201.109375    382.392212
   12259           0      -905.711182  -1100.000000  -9201.109375    357.158783
   12260           0     -1267.995605  -1100.000000  -9201.109375    319.575500
   12261           0     -1630.279785  -1100.000000  -9201.109375    269.672516
   12262           0     -1992.564209  -1100.000000  -9201.109375    207.631256
   12263           0     -2354.849121  -1100.000000  -9201.109375    134.341446
   12264           0     -2717.133301  -1099.999878  -9201.110352     57.614639
   12265           0      2717.133057  -1100.000122  -8825.558594     58.142490
   12266           0      2354.848633  -1100.000000  -8825.562500    138.814362
   12267           0      1992.564331  -1100.000000  -8825.562500    211.454224
   12268           0      1630.279785  -1100.000000  -8825.562500    272.238159
   12269           0      1267.995483  -1100.000000  -8825.562500    320.770233
   12270           0       905.711060  -1100.000000  -8825.562500    357.006317
   12271           0       543.426575  -1100.000000  -8825.562500    380.968719
   12272           0       181.142136  -1100.000000  -8825.562500    392.686707
   12273           0      -181.142288  -1100.000000  -8825.562500    392.178040
   12274           0      -543.426758  -1100.000000  -8825.562500    379.444153
   12275           0      -905.711182  -1100.000000  -8825.562500    354.473053
   12276           0     -1267.995605  -1100.000000  -8825.562500    317.251434
   12277           0     -1630.279785  -1100.000000  -8825.562500    267.798462
   12278           0     -1992.564209  -1100.000000  -8825.562500    206.285858
   12279           0     -2354.849121  -1100.000000  -8825.562500    133.611526
   12280           0     -2717.133301  -1099.999878  -8825.559570     57.736546
   12281           0      2717.133057  -1100.000122  -8450.000977     58.554955
   12282           0      2354.848633  -1100.000000  -8450.000977    137.721268
   12283           0      1992.564331  -1100.000000  -8450.000977    209.576233
   12284           0      1630.279785  -1100.000000  -8450.000977    269.756165
   12285           0      1267.995483  -1100.000000  -8450.000977    317.809235
   12286           0       905.711060  -1100.000000  -8450.000977    353.688263
   12287           0       543.426575  -1100.000000  -8450.000977    377.422424
   12288           0       181.142136  -1100.000000  -8450.000977    389.047272
   12289           0      -181.142288  -1100.000000  -8450.000977    388.583801
   12290           0      -543.426758  -1100.000000  -8450.000977    376.031952
   12291           0      -905.711182  -1100.000000  -8450.000977    351.374146
   12292           0     -1267.995605  -1100.000000  -8450.000977    314.587494
   12293           0     -1630.279785  -1100.000000  -8450.000977    265.680267
   12294           0     -1992.564209  -1100.000000  -8450.000977    204.819077
   12295           0     -2354.849121  -1100.000000  -8450.000977    132.932388
   12296           0     -2717.133301  -1099.999878  -8450.000977     58.272659
   12297           0      2717.133057  -1100.000122  -8074.442383     59.438587
   12298           0      2354.848633  -1100.000000  -8074.439453    136.662888
   12299           0      1992.564331  -1100.000000  -8074.439453    207.531174
   12300           0      1630.279785  -1100.000000  -8074.439453    266.966339
   12301           0      1267.995483  -1100.000000  -8074.439453    314.432220
   12302           0       905.711060  -1100.000000  -8074.439453    349.874207
   12303           0       543.426575  -1100.000000  -8074.439453    373.327667
   12304           0       181.142136  -1100.000000  -8074.439453    384.835358
   12305           0      -181.142288  -1100.000000  -8074.439453    384.421509
   12306           0      -543.426758  -1100.000000  -8074.439453    372.085083
   12307           0      -905.711182  -1100.000000  -8074.439453    347.801727
   12308           0     -1267.995605  -1100.000000  -8074.439453    311.538452
   12309           0     -1630.279785  -1100.000000  -8074.439453    263.293243
   12310           0     -1992.564209  -1100.000000  -8074.439453    203.232986
   12311           0     -2354.849121  -1100.000000  -8074.439453    132.348038
   12312           0     -2717.133301  -1099.999878  -8074.442383     59.345695
   12313           0      2717.133057  -1100.000122  -7698.884277     60.940403
   12314           0      2354.848633  -1100.000000  -7698.879883    135.693314
   12315           0      1992.564331  -1100.000000  -7698.879883    205.323929
   12316           0      1630.279785  -1100.000000  -7698.879883    263.839813
   12317           0      1267.995483  -1100.000000  -7698.879883    310.586426
   12318           0       905.711060  -1100.000000  -7698.879883    345.493744
   12319           0       543.426575  -1100.000000  -7698.879883    368.602783
   12320           0       181.142136  -1100.000000  -7698.879883    379.963623
   12321           0      -181.142288  -1100.000000  -7698.879883    379.604767
   12322           0      -543.426758  -1100.000000  -7698.879883    367.523376
   12323           0      -905.711182  -1100.000000  -7698.879883    343.688232
   12324           0     -1267.995605  -1100.000000  -7698.879883    308.055298
   12325           0     -1630.279785  -1100.000000  -7698.879883    260.613068
   12326           0     -1992.564209  -1100.000000  -7698.879883    201.537231
   12327           0     -2354.849121  -1100.000000  -7698.879883    131.916443
   12328           0     -2717.133301  -1099.999878  -7698.884766     61.091080
   12329           0      2717.133057  -1100.000122  -7323.327637     63.220497
   12330           0      2354.848633  -1100.000000  -7323.321289    134.889053
   12331           0      1992.564331  -1100.000000  -7323.321289    202.968201
   12332           0      1630.279785  -1100.000000  -7323.321289    260.350098
   12333           0      1267.995483  -1100.000000  -7323.321289    306.215424
   12334           0       905.711060  -1100.000000  -7323.321289    340.468994
   12335           0       543.426575  -1100.000000  -7323.321289    363.155487
   12336           0       181.142136  -1100.000000  -7323.321289    374.333344
   12337           0      -181.142288  -1100.000000  -7323.321289    374.035248
   12338           0      -543.426758  -1100.000000  -7323.321289    362.256744
   12339           0      -905.711182  -1100.000000  -7323.321289    338.958679
   12340           0     -1267.995605  -1100.000000  -7323.321289    304.085480
   12341           0     -1630.279785  -1100.000000  -7323.321289    257.617798
   12342           0     -1992.564209  -1100.000000  -7323.321289    199.750381
   12343           0     -2354.849121  -1100.000000  -7323.321289    131.717896
   12344           0     -2717.133301  -1099.999878  -7323.327148     63.661022
   12345           0      2717.133057  -1100.000122  -6947.776367     66.448006
   12346           0      2354.848633  -1100.000000  -6947.774902    134.351471
   12347           0      1992.564331  -1100.000000  -6947.774902    200.491974
   12348           0      1630.279785  -1100.000000  -6947.774902    256.475006
   12349           0      1267.995483  -1100.000000  -6947.774902    301.260376
   12350           0       905.711060  -1100.000000  -6947.774902    334.714386
   12351           0       543.426575  -1100.000000  -6947.774902    356.883179
   12352           0       181.142136  -1100.000000  -6947.774902    367.833313
   12353           0      -181.142288  -1100.000000  -6947.774902    367.602570
   12354           0      -543.426758  -1100.000000  -6947.774902    356.184357
   12355           0      -905.711182  -1100.000000  -6947.774902    333.530914
   12356           0     -1267.995605  -1100.000000  -6947.774902    299.574341
   12357           0     -1630.279785  -1100.000000  -6947.774902    254.289856
   12358           0     -1992.564209  -1100.000000  -6947.774902    197.904648
   12359           0     -2354.849121  -1100.000000  -6947.774902    131.854294
   12360           0     -2717.133301  -1099.999878  -6947.776367     67.204033
   12361           0      2717.133057  -1100.000122  -6572.225586     70.784508
   12362           0      2354.848633  -1100.000000  -6572.228027    134.211227
   12363           0      1992.564331  -1100.000000  -6572.228027    197.941025
   12364           0      1630.279785  -1100.000000  -6572.228027    252.199097
   12365           0      1267.995483  -1100.000000  -6572.228027    295.660675
   12366           0       905.711060  -1100.000000  -6572.228027    328.136627
   12367           0       543.426575  -1100.000000  -6572.228027    349.670898
   12368           0       181.142136  -1100.000000  -6572.228027    360.338348
   12369           0      -181.142288  -1100.000000  -6572.228027    360.182159
   12370           0      -543.426758  -1100.000000  -6572.228027    349.193634
   12371           0      -905.711182  -1100.000000  -6572.228027    327.314972
   12372           0     -1267.995605  -1100.000000  -6572.228027    294.465729
   12373           0     -1630.279785  -1100.000000  -6572.228027    250.618378
   12374           0     -1992.564209  -1100.000000  -6572.228027    196.049103
   12375           0     -2354.849121  -1100.000000  -6572.228027    132.453491
   12376           0     -2717.133301  -1099.999878  -6572.225098     71.863487
   12377           0      2717.133057  -1100.000122  -6196.666992     76.369652
   12378           0      2354.848633  -1100.000000  -6196.666992    134.630539
   12379           0      1992.564331  -1100.000000  -6196.666992    195.383865
   12380           0      1630.279785  -1100.000000  -6196.666992    247.517410
   12381           0      1267.995483  -1100.000000  -6196.666992    289.356140
   12382           0       905.711060  -1100.000000  -6196.666992    320.635071
   12383           0       543.426575  -1100.000000  -6196.666992    341.391357
   12384           0       181.142136  -1100.000000  -6196.666992    351.708405
   12385           0      -181.142288  -1100.000000  -6196.666992    351.635010
   12386           0      -543.426758  -1100.000000  -6196.666992    341.159821
   12387           0      -905.711182  -1100.000000  -6196.666992    320.214111
   12388           0     -1267.995605  -1100.000000  -6196.666992    288.703644
   12389           0     -1630.279785  -1100.000000  -6196.666992    246.602402
   12390           0     -1992.564209  -1100.000000  -6196.666992    194.253433
   12391           0     -2354.849121  -1100.000000  -6196.666992    133.668961
   12392           0     -2717.133301  -1099.999878  -6196.666992     77.757416
   12393           0      2717.133057  -1100.000122  -5821.108398     83.309601
   12394           0      2354.848633  -1100.000000  -5821.105469    135.798752
   12395           0      1992.564331  -1100.000000  -5821.105469    192.915527
   12396           0      1630.279785  -1100.000000  -5821.105469    242.440369
   12397           0      1267.995483  -1100.000000  -5821.105469    282.290375
   12398           0       905.711060  -1100.000000  -5821.105469    312.103699
   12399           0       543.426575  -1100.000000  -5821.105469    331.905945
   12400           0       181.142136  -1100.000000  -5821.105469    341.788757
   12401           0      -181.142288  -1100.000000  -5821.105469    341.807129
   12402           0      -543.426758  -1100.000000  -5821.105469    331.946716
   12403           0      -905.711182  -1100.000000  -5821.105469    312.125824
   12404           0     -1267.995605  -1100.000000  -5821.105469    282.235718
   12405           0     -1630.279785  -1100.000000  -5821.105469    242.254578
   12406           0     -1992.564209  -1100.000000  -5821.105469    192.610413
   12407           0     -2354.849121  -1100.000000  -5821.105469    135.674393
   12408           0     -2717.133301  -1099.999878  -5821.108398     84.976288
   12409           0      2717.133057  -1100.000122  -5445.557129     91.665169
   12410           0      2354.848633  -1100.000000  -5445.558594    137.918777
   12411           0      1992.564331  -1100.000000  -5445.558594    190.660080
   12412           0      1630.279785  -1100.000000  -5445.558594    236.996292
   12413           0      1267.995483  -1100.000000  -5445.558594    274.412018
   12414           0       905.711060  -1100.000000  -5445.558594    302.431000
   12415           0       543.426575  -1100.000000  -5445.558594    321.062408
   12416           0       181.142136  -1100.000000  -5445.558594    330.407166
   12417           0      -181.142288  -1100.000000  -5445.558594    330.527405
   12418           0      -543.426758  -1100.000000  -5445.558594    321.404633
   12419           0      -905.711182  -1100.000000  -5445.558594    302.942200
   12420           0     -1267.995605  -1100.000000  -5445.558594    275.013580
   12421           0     -1630.279785  -1100.000000  -5445.558594    237.603592
   12422           0     -1992.564209  -1100.000000  -5445.558594    191.236389
   12423           0     -2354.849121  -1100.000000  -5445.558594    138.648148
   12424           0     -2717.133301  -1099.999878  -5445.557129     93.568581
   12425           0      2717.133057  -1100.000122  -5070.000488    101.450073
   12426           0      2354.848633  -1100.000000  -5070.000977    141.186615
   12427           0      1992.564331  -1100.000000  -5070.000977    188.766373
   12428           0      1630.279785  -1100.000000  -5070.000977    231.233429
   12429           0      1267.995483  -1100.000000  -5070.000977    265.677216
   12430           0       905.711060  -1100.000000  -5070.000977    291.499176
   12431           0       543.426575  -1100.000000  -5070.000977    308.693054
   12432           0       181.142136  -1100.000000  -5070.000977    317.370941
   12433           0      -181.142288  -1100.000000  -5070.000977    317.603943
   12434           0      -543.426758  -1100.000000  -5070.000977    309.368500
   12435           0      -905.711182  -1100.000000  -5070.000977    292.548187
   12436           0     -1267.995605  -1100.000000  -5070.000977    266.994507
   12437           0     -1630.279785  -1100.000000  -5070.000977    232.693390
   12438           0     -1992.564209  -1100.000000  -5070.000977    190.265579
   12439           0     -2354.849121  -1100.000000  -5070.000977    142.754578
   12440           0     -2717.133301  -1099.999878  -5070.000488    103.540237
   12441           0      2717.133057  -1100.000122  -4694.443359    112.601143
   12442           0      2354.848633  -1100.000000  -4694.442383    145.759537
   12443           0      1992.564331  -1100.000000  -4694.442383    187.395386
   12444           0      1630.279785  -1100.000000  -4694.442383    225.221024
   12445           0      1267.995483  -1100.000000  -4694.442383    256.051025
   12446           0       905.711060  -1100.000000  -4694.442383    279.187164
   12447           0       543.426575  -1100.000000  -4694.442383    294.614899
   12448           0       181.142136  -1100.000000  -4694.442383    302.466064
   12449           0      -181.142288  -1100.000000  -4694.442383    302.823822
   12450           0      -543.426758  -1100.000000  -4694.442383    295.657349
   12451           0      -905.711182  -1100.000000  -4694.442383    280.824615
   12452           0     -1267.995605  -1100.000000  -4694.442383    258.141632
   12453           0     -1630.279785  -1100.000000  -4694.442383    227.583557
   12454           0     -1992.564209  -1100.000000  -4694.442383    189.834702
   12455           0     -2354.849121  -1100.000000  -4694.442383    148.114685
   12456           0     -2717.133301  -1099.999878  -4694.443359    114.828728
   12457           0      2717.133057  -1100.000122  -4318.885254    124.995369
   12458           0      2354.848633  -1100.000000  -4318.880859    151.703537
   12459           0      1992.564331  -1100.000000  -4318.880859    186.697159
   12460           0      1630.279785  -1100.000000  -4318.880859    219.037766
   12461           0      1267.995483  -1100.000000  -4318.880859    245.506958
   12462           0       905.711060  -1100.000000  -4318.880859    265.365784
   12463           0       543.426575  -1100.000000  -4318.880859    278.624725
   12464           0       181.142136  -1100.000000  -4318.880859    285.449890
   12465           0      -181.142288  -1100.000000  -4318.880859    285.945007
   12466           0      -543.426758  -1100.000000  -4318.880859    280.069824
   12467           0      -905.711182  -1100.000000  -4318.880859    267.641754
   12468           0     -1267.995605  -1100.000000  -4318.880859    248.421692
   12469           0     -1630.279785  -1100.000000  -4318.880859    222.333664
   12470           0     -1992.564209  -1100.000000  -4318.880859    190.059753
   12471           0     -2354.849121  -1100.000000  -4318.880859    154.757553
   12472           0     -2717.133301  -1099.999878  -4318.885254    127.308884
   12473           0      2717.133057  -1100.000122  -3943.326904    138.367950
   12474           0      2354.848633  -1100.000000  -3943.320313    158.961380
   12475           0      1992.564331  -1100.000000  -3943.320313    186.761185
   12476           0      1630.279785  -1100.000000  -3943.320313    212.758453
   12477           0      1267.995483  -1100.000000  -3943.320313    234.017502
   12478           0       905.711060  -1100.000000  -3943.320313    249.897888
   12479           0       543.426575  -1100.000000  -3943.320313    260.493103
   12480           0       181.142136  -1100.000000  -3943.320313    266.044708
   12481           0      -181.142288  -1100.000000  -3943.320313    266.690765
   12482           0      -543.426758  -1100.000000  -3943.320313    262.376801
   12483           0      -905.711182  -1100.000000  -3943.320313    252.858215
   12484           0     -1267.995605  -1100.000000  -3943.320313    237.792252
   12485           0     -1630.279785  -1100.000000  -3943.320313    216.988495
   12486           0     -1992.564209  -1100.000000  -3943.320313    190.986404
   12487           0     -2354.849121  -1100.000000  -3943.320313    162.595901
   12488           0     -2717.133301  -1099.999878  -3943.327148    140.721771
   12489           0      2717.133057  -1100.000122  -3567.776123    152.369476
   12490           0      2354.848633  -1100.000000  -3567.774170    167.265564
   12491           0      1992.564331  -1100.000000  -3567.774170    187.564529
   12492           0      1630.279785  -1100.000000  -3567.774170    206.410492
   12493           0      1267.995483  -1100.000000  -3567.774170    221.548874
   12494           0       905.711060  -1100.000000  -3567.774170    232.629730
   12495           0       543.426575  -1100.000000  -3567.774170    239.961609
   12496           0       181.142136  -1100.000000  -3567.774170    243.928680
   12497           0      -181.142288  -1100.000000  -3567.774170    244.739471
   12498           0      -543.426758  -1100.000000  -3567.774170    242.318085
   12499           0      -905.711182  -1100.000000  -3567.774170    236.309586
   12500           0     -1267.995605  -1100.000000  -3567.774170    226.192383
   12501           0     -1630.279785  -1100.000000  -3567.774170    211.529739
   12502           0     -1992.564209  -1100.000000  -3567.774170    192.541275
   12503           0     -2354.849121  -1100.000000  -3567.774170    171.338028
   12504           0     -2717.133301  -1099.999878  -3567.776123    154.720459
   12505           0      2717.133057  -1100.000122  -3192.224609    166.357162
   12506           0      2354.848633  -1100.000000  -3192.227539    176.147858
   12507           0      1992.564331  -1100.000000  -3192.227539    188.874634
   12508           0      1630.279785  -1100.000000  -3192.227539    199.937164
   12509           0      1267.995483  -1100.000000  -3192.227539    208.034271
   12510           0       905.711060  -1100.000000  -3192.227539    213.398148
   12511           0       543.426575  -1100.000000  -3192.227539    216.738205
   12512           0       181.142136  -1100.000000  -3192.227539    218.730942
   12513           0      -181.142288  -1100.000000  -3192.227539    219.719772
   12514           0      -543.426758  -1100.000000  -3192.227539    219.596115
   12515           0      -905.711182  -1100.000000  -3192.227539    217.809784
   12516           0     -1267.995605  -1100.000000  -3192.227539    213.509247
   12517           0     -1630.279785  -1100.000000  -3192.227539    205.837906
   12518           0     -1992.564209  -1100.000000  -3192.227539    194.438766
   12519           0     -2354.849121  -1100.000000  -3192.227539    180.506195
   12520           0     -2717.133301  -1099.999878  -3192.224365    168.662979
   12521           0      2717.133057  -1100.000122  -2816.673584    179.597214
   12522           0      2354.848633  -1100.000000  -2816.681152    184.767136
   12523           0      1992.564331  -1100.000000  -2816.681152    190.200989
   12524           0      1630.279785  -1100.000000  -2816.681152    193.110992
   12525           0      1267.995483  -1100.000000  -2816.681152    193.385437
   12526           0       905.711060  -1100.000000  -2816.681152    192.057526
   12527           0       543.426575  -1100.000000  -2816.681152    190.545105
   12528           0       181.142136  -1100.000000  -2816.681152    190.062454
   12529           0      -181.142288  -1100.000000  -2816.681152    191.241501
   12530           0      -543.426758  -1100.000000  -2816.681152    193.916534
   12531           0      -905.711182  -1100.000000  -2816.681152    197.167572
   12532           0     -1267.995605  -1100.000000  -2816.681152    199.573959
   12533           0     -1630.279785  -1100.000000  -2816.681152    199.599518
   12534           0     -1992.564209  -1100.000000  -2816.681152    196.131409
   12535           0     -2354.849121  -1100.000000  -2816.681152    189.243805
   12536           0     -2717.133301  -1099.999878  -2816.673584    181.826248
   12537           0      2717.133057  -1100.000122  -2441.114502    190.712128
   12538           0      2354.848633  -1100.000000  -2441.117676    192.047119
   12539           0      1992.564331  -1100.000000  -2441.117676    190.666000
   12540           0      1630.279785  -1100.000000  -2441.117676    185.539032
   12541           0      1267.995483  -1100.000000  -2441.117676    177.532455
   12542           0       905.711060  -1100.000000  -2441.117676    168.653183
   12543           0       543.426575  -1100.000000  -2441.117676    161.304626
   12544           0       181.142136  -1100.000000  -2441.117676    157.696747
   12545           0      -181.142288  -1100.000000  -2441.117676    159.068924
   12546           0      -543.426758  -1100.000000  -2441.117676    165.160355
   12547           0      -905.711182  -1100.000000  -2441.117676    174.323715
   12548           0     -1267.995605  -1100.000000  -2441.117676    184.181427
   12549           0     -1630.279785  -1100.000000  -2441.117676    192.295654
   12550           0     -1992.564209  -1100.000000  -2441.117676    196.679413
   12551           0     -2354.849121  -1100.000000  -2441.117676    196.474655
   12552           0     -2717.133301  -1099.999878  -2441.114502    192.807037
   12553           0      2717.133057  -1100.000122  -2065.554443    198.358170
   12554           0      2354.848633  -1100.000000  -2065.553955    196.245529
   12555           0      1992.564331  -1100.000000  -2065.553955    189.087112
   12556           0      1630.279785  -1100.000000  -2065.553955    176.666275
   12557           0      1267.995483  -1100.000000  -2065.553955    160.746582
   12558           0       905.711060  -1100.000000  -2065.553955    144.004105
   12559           0       543.426575  -1100.000000  -2065.553955    129.951004
   12560           0       181.142136  -1100.000000  -2065.553955    122.396904
   12561           0      -181.142288  -1100.000000  -2065.553955    123.931633
   12562           0      -543.426758  -1100.000000  -2065.553955    134.115509
   12563           0      -905.711182  -1100.000000  -2065.553955    149.854782
   12564           0     -1267.995605  -1100.000000  -2065.553955    167.327423
   12565           0     -1630.279785  -1100.000000  -2065.553955    183.180145
   12566           0     -1992.564209  -1100.000000  -2065.553955    194.786774
   12567           0     -2354.849121  -1100.000000  -2065.553955    200.395828
   12568           0     -2717.133301  -1099.999878  -2065.554199    200.296371
   12569           0      2717.133057  -1100.000122  -1689.999390    199.714691
   12570           0      2354.848633  -1100.000000  -1690.000366    195.518631
   12571           0      1992.564331  -1100.000000  -1690.000366    183.941544
   12572           0      1630.279785  -1100.000000  -1690.000366    166.308197
   12573           0      1267.995483  -1100.000000  -1690.000366    144.605972
   12574           0       905.711060  -1100.000000  -1690.000366    121.747841
   12575           0       543.426575  -1100.000000  -1690.000366    101.676857
   12576           0       181.142136  -1100.000000  -1690.000366     89.879875
   12577           0      -181.142288  -1100.000000  -1690.000366     91.338631
   12578           0      -543.426758  -1100.000000  -1690.000366    105.433708
   12579           0      -905.711182  -1100.000000  -1690.000366    126.740433
   12580           0     -1267.995605  -1100.000000  -1690.000366    150.071945
   12581           0     -1630.279785  -1100.000000  -1690.000366    171.685715
   12582           0     -1992.564209  -1100.000000  -1690.000366    188.737747
   12583           0     -2354.849121  -1100.000000  -1690.000366    199.101791
   12584           0     -2717.133301  -1099.999878  -1689.999390    201.343994
   12585           0      2717.133057  -1100.000122  -1314.445313    192.582657
   12586           0      2354.848633  -1100.000000  -1314.446899    186.929642
   12587           0      1992.564331  -1100.000000  -1314.446899    174.228821
   12588           0      1630.279785  -1100.000000  -1314.446899    155.916351
   12589           0      1267.995483  -1100.000000  -1314.446899    134.760132
   12590           0       905.711060  -1100.000000  -1314.446899    113.448669
   12591           0       543.426575  -1100.000000  -1314.446899     95.206955
   12592           0       181.142136  -1100.000000  -1314.446899     84.343437
   12593           0      -181.142288  -1100.000000  -1314.446899     84.805725
   12594           0      -543.426758  -1100.000000  -1314.446899     96.470879
   12595           0      -905.711182  -1100.000000  -1314.446899    115.321281
   12596           0     -1267.995605  -1100.000000  -1314.446899    137.096191
   12597           0     -1630.279785  -1100.000000  -1314.446899    158.602448
   12598           0     -1992.564209  -1100.000000  -1314.446899    176.992691
   12599           0     -2354.849121  -1100.000000  -1314.446899    189.308945
   12600           0     -2717.133301  -1099.999878  -1314.445435    193.826019
   12601           0      2717.133057  -1100.000122   -938.886353    171.348602
   12602           0      2354.848633  -1100.000000   -938.884338    168.878387
   12603           0      1992.564331  -1100.000000   -938.884338    161.298370
   12604           0      1630.279785  -1100.000000   -938.884338    152.627380
   12605           0      1267.995483  -1100.000000   -938.884338    144.886993
   12606           0       905.711060  -1100.000000   -938.884338    138.849594
   12607           0       543.426575  -1100.000000   -938.884338    134.683716
   12608           0       181.142136  -1100.000000   -938.884338    132.256226
   12609           0      -181.142288  -1100.000000   -938.884338    131.504120
   12610           0      -543.426758  -1100.000000   -938.884338    132.602615
   12611           0      -905.711182  -1100.000000   -938.884338    135.921921
   12612           0     -1267.995605  -1100.000000   -938.884338    141.802826
   12613           0     -1630.279785  -1100.000000   -938.884338    150.110077
   12614           0     -1992.564209  -1100.000000   -938.884338    159.923157
   12615           0     -2354.849121  -1100.000000   -938.884338    168.733292
   12616           0     -2717.133301  -1099.999878   -938.886353    171.527054
   12617           0      2717.133057  -1100.000122   -563.326294    133.182205
   12618           0      2354.848633  -1100.000000   -563.320740    142.284134
   12619           0      1992.564331  -1100.000000   -563.320740    156.638763
   12620           0      1630.279785  -1100.000000   -563.320740    174.310410
   12621           0      1267.995483  -1100.000000   -563.320740    191.778397
   12622           0       905.711060  -1100.000000   -563.320740    206.429077
   12623           0       543.426575  -1100.000000   -563.320740    216.546280
   12624           0       181.142136  -1100.000000   -563.320740    221.157349
   12625           0      -181.142288  -1100.000000   -563.320740    219.846909
   12626           0      -543.426758  -1100.000000   -563.320740    212.680206
   12627           0      -905.711182  -1100.000000   -563.320740    200.226868
   12628           0     -1267.995605  -1100.000000   -563.320740    183.680267
   12629           0     -1630.279785  -1100.000000   -563.320740    165.117004
   12630           0     -1992.564209  -1100.000000   -563.320740    147.765305
   12631           0     -2354.849121  -1100.000000   -563.320740    135.796875
   12632           0     -2717.133301  -1099.999878   -563.326294    131.087784
   12633           0      2717.133057  -1100.000122   -187.775253     78.211853
   12634           0      2354.848633  -1100.000000   -187.773239    134.974869
   12635           0      1992.564331  -1100.000000   -187.773239    192.079681
   12636           0      1630.279785  -1100.000000   -187.773239    242.213318
   12637           0      1267.995483  -1100.000000   -187.773239    283.200775
   12638           0       905.711060  -1100.000000   -187.773239    314.087463
   12639           0       543.426575  -1100.000000   -187.773239    334.362122
   12640           0       181.142136  -1100.000000   -187.773239    343.770782
   12641           0      -181.142288  -1100.000000   -187.773239    342.210205
   12642           0      -543.426758  -1100.000000   -187.773239    329.707336
   12643           0      -905.711182  -1100.000000   -187.773239    306.416840
   12644           0     -1267.995605  -1100.000000   -187.773239    272.659760
   12645           0     -1630.279785  -1100.000000   -187.773239    229.024597
   12646           0     -1992.564209  -1100.000000   -187.773239    176.620361
   12647           0     -2354.849121  -1100.000000   -187.773239    118.048714
   12648           0     -2717.133301  -1099.999878   -187.775253     63.785160
1
1
                                                      SUMMARY INFORMATION
                                                  _________________________

                                                         Min/Max Values
    -Source ID--Entity ID---Sub ID-----von Mises---
Min:     2        169          0         1.674723
Max:     1       8785          0       507.395782


                                                         Result Sources
-Source Id---Loadcase Name---------Subcase Name---------Layer Name----
      1     Combined_Loads        Subcase 1            At Z1              
      2     Combined_Loads        Subcase 1            At Z2              
1
1
1
1